   20
scf done:  -477.908211
 C    -3.807332     1.301055    -0.012618
 C    -2.726172     2.163480    -0.062932
 C    -2.359852    -0.644865     0.145739
 H    -4.506223    -0.720038     0.126455
 C     0.768443     1.152843     0.050951
 C    -1.266898     0.220477     0.095349
 H     0.506136    -0.942260     0.200444
 H    -2.856754     3.235707    -0.142495
 C    -1.431650     1.618329    -0.008314
 C    -0.120635     2.189012    -0.034737
 H    -2.231977    -1.719794     0.225468
 C    -3.622188    -0.093562     0.091044
 N     0.084727    -0.033400     0.129423
 O    -5.110149     1.697984    -0.056541
 H     0.135481     3.235406    -0.107960
 H     1.848317     1.166654     0.062402
 C    -5.368383     3.075786    -0.159824
 H    -6.452980     3.181732    -0.180048
 H    -4.968888     3.627019     0.700851
 H    -4.948324     3.497237    -1.081857
