 Entering Gaussian System, Link 0=g09
 Initial command:
 /LUSTRE/yoltla/nc/app/gaussian/09-sse4_2/g09/l1.exe "/tmp/SCRATCH/673324/Gau-66893.inp" -scrdir="/tmp/SCRATCH/673324/"
 Entering Link 1 = /LUSTRE/yoltla/nc/app/gaussian/09-sse4_2/g09/l1.exe PID=     66894.
  
 Copyright (c) 1988,1990,1992,1993,1995,1998,2003,2009,2013,
            Gaussian, Inc.  All Rights Reserved.
  
 This is part of the Gaussian(R) 09 program.  It is based on
 the Gaussian(R) 03 system (copyright 2003, Gaussian, Inc.),
 the Gaussian(R) 98 system (copyright 1998, Gaussian, Inc.),
 the Gaussian(R) 94 system (copyright 1995, Gaussian, Inc.),
 the Gaussian 92(TM) system (copyright 1992, Gaussian, Inc.),
 the Gaussian 90(TM) system (copyright 1990, Gaussian, Inc.),
 the Gaussian 88(TM) system (copyright 1988, Gaussian, Inc.),
 the Gaussian 86(TM) system (copyright 1986, Carnegie Mellon
 University), and the Gaussian 82(TM) system (copyright 1983,
 Carnegie Mellon University). Gaussian is a federally registered
 trademark of Gaussian, Inc.
  
 This software contains proprietary and confidential information,
 including trade secrets, belonging to Gaussian, Inc.
  
 This software is provided under written license and may be
 used, copied, transmitted, or stored only in accord with that
 written license.
  
 The following legend is applicable only to US Government
 contracts under FAR:
  
                    RESTRICTED RIGHTS LEGEND
  
 Use, reproduction and disclosure by the US Government is
 subject to restrictions as set forth in subparagraphs (a)
 and (c) of the Commercial Computer Software - Restricted
 Rights clause in FAR 52.227-19.
  
 Gaussian, Inc.
 340 Quinnipiac St., Bldg. 40, Wallingford CT 06492
  
  
 ---------------------------------------------------------------
 Warning -- This program may not be used in any manner that
 competes with the business of Gaussian, Inc. or will provide
 assistance to any competitor of Gaussian, Inc.  The licensee
 of this program is prohibited from giving any competitor of
 Gaussian, Inc. access to this program.  By using this program,
 the user acknowledges that Gaussian, Inc. is engaged in the
 business of creating and licensing software in the field of
 computational chemistry and represents and warrants to the
 licensee that it is not a competitor of Gaussian, Inc. and that
 it will not use this program in any manner prohibited above.
 ---------------------------------------------------------------
  

 Cite this work as:
 Gaussian 09, Revision D.01,
 M. J. Frisch, G. W. Trucks, H. B. Schlegel, G. E. Scuseria, 
 M. A. Robb, J. R. Cheeseman, G. Scalmani, V. Barone, B. Mennucci, 
 G. A. Petersson, H. Nakatsuji, M. Caricato, X. Li, H. P. Hratchian, 
 A. F. Izmaylov, J. Bloino, G. Zheng, J. L. Sonnenberg, M. Hada, 
 M. Ehara, K. Toyota, R. Fukuda, J. Hasegawa, M. Ishida, T. Nakajima, 
 Y. Honda, O. Kitao, H. Nakai, T. Vreven, J. A. Montgomery, Jr., 
 J. E. Peralta, F. Ogliaro, M. Bearpark, J. J. Heyd, E. Brothers, 
 K. N. Kudin, V. N. Staroverov, T. Keith, R. Kobayashi, J. Normand, 
 K. Raghavachari, A. Rendell, J. C. Burant, S. S. Iyengar, J. Tomasi, 
 M. Cossi, N. Rega, J. M. Millam, M. Klene, J. E. Knox, J. B. Cross, 
 V. Bakken, C. Adamo, J. Jaramillo, R. Gomperts, R. E. Stratmann, 
 O. Yazyev, A. J. Austin, R. Cammi, C. Pomelli, J. W. Ochterski, 
 R. L. Martin, K. Morokuma, V. G. Zakrzewski, G. A. Voth, 
 P. Salvador, J. J. Dannenberg, S. Dapprich, A. D. Daniels, 
 O. Farkas, J. B. Foresman, J. V. Ortiz, J. Cioslowski, 
 and D. J. Fox, Gaussian, Inc., Wallingford CT, 2013.
 
 ******************************************
 Gaussian 09:  ES64L-G09RevD.01 24-Apr-2013
                16-Jul-2025 
 ******************************************
 %chk=opt_203.chk
 %nprocshared=20
 Will use up to   20 processors via shared memory.
 %mem=30000MB
 ---------------------------------
 # UPBE1PBE/6-311++g(d,p) opt freq
 ---------------------------------
 1/14=-1,18=20,19=15,26=3,38=1/1,3;
 2/9=110,12=2,17=6,18=5,40=1/2;
 3/5=4,6=6,7=1111,11=2,16=1,25=1,30=1,71=1,74=-13,116=2/1,2,3;
 4//1;
 5/5=2,38=5/2;
 6/7=2,8=2,9=2,10=2,28=1/1;
 7//1,2,3,16;
 1/14=-1,18=20,19=15,26=3/3(2);
 2/9=110/2;
 99//99;
 2/9=110/2;
 3/5=4,6=6,7=1111,11=2,16=1,25=1,30=1,71=1,74=-13,116=2/1,2,3;
 4/5=5,16=3,69=1/1;
 5/5=2,38=5/2;
 7//1,2,3,16;
 1/14=-1,18=20,19=15,26=3/3(-5);
 2/9=110/2;
 6/7=2,8=2,9=2,10=2,19=2,28=1/1;
 99/9=1/99;
 --
 Nu
 --
 Symbolic Z-matrix:
 Charge =  0 Multiplicity = 1
 C                    -3.7952    1.3101   -0.0131 
 C                    -2.6667    2.1691   -0.0626 
 C                    -2.3092   -0.6389    0.1459 
 H                    -4.46     -0.748     0.129 
 C                     0.7466    1.1019    0.0544 
 C                    -1.2276    0.236     0.0947 
 H                     0.5002   -1.0252    0.2064 
 H                    -2.7642    3.2437   -0.142 
 C                    -1.401     1.5901   -0.0059 
 C                    -0.1484    2.1625   -0.0331 
 H                    -2.1613   -1.7081    0.2254 
 C                    -3.6023   -0.0884    0.0909 
 N                     0.0795   -0.0723    0.1322 
 O                    -5.0689    1.7784   -0.0619 
 H                     0.091     3.2151   -0.107 
 H                     1.8252    1.1874    0.0606 
 C                    -5.4352    3.1044   -0.1627 
 H                    -6.5421    3.1742   -0.1805 
 H                    -5.0583    3.6745    0.7131 
 H                    -5.0374    3.5423   -1.103 
 

 GradGradGradGradGradGradGradGradGradGradGradGradGradGradGradGradGradGrad
 Berny optimization.
 Initialization pass.
                           ----------------------------
                           !    Initial Parameters    !
                           ! (Angstroms and Degrees)  !
 --------------------------                            --------------------------
 ! Name  Definition              Value          Derivative Info.                !
 --------------------------------------------------------------------------------
 ! R1    R(1,2)                  1.4191         estimate D2E/DX2                !
 ! R2    R(1,12)                 1.4156         estimate D2E/DX2                !
 ! R3    R(1,14)                 1.3579         estimate D2E/DX2                !
 ! R4    R(2,8)                  1.0819         estimate D2E/DX2                !
 ! R5    R(2,9)                  1.393          estimate D2E/DX2                !
 ! R6    R(3,6)                  1.3921         estimate D2E/DX2                !
 ! R7    R(3,11)                 1.0823         estimate D2E/DX2                !
 ! R8    R(3,12)                 1.4065         estimate D2E/DX2                !
 ! R9    R(4,12)                 1.0827         estimate D2E/DX2                !
 ! R10   R(5,10)                 1.3905         estimate D2E/DX2                !
 ! R11   R(5,13)                 1.3527         estimate D2E/DX2                !
 ! R12   R(5,16)                 1.082          estimate D2E/DX2                !
 ! R13   R(6,9)                  1.3689         estimate D2E/DX2                !
 ! R14   R(6,13)                 1.3435         estimate D2E/DX2                !
 ! R15   R(7,13)                 1.0443         estimate D2E/DX2                !
 ! R16   R(9,10)                 1.3775         estimate D2E/DX2                !
 ! R17   R(10,15)                1.082          estimate D2E/DX2                !
 ! R18   R(14,17)                1.3794         estimate D2E/DX2                !
 ! R19   R(17,18)                1.1092         estimate D2E/DX2                !
 ! R20   R(17,19)                1.1109         estimate D2E/DX2                !
 ! R21   R(17,20)                1.1109         estimate D2E/DX2                !
 ! A1    A(2,1,12)             119.4861         estimate D2E/DX2                !
 ! A2    A(2,1,14)             122.4042         estimate D2E/DX2                !
 ! A3    A(12,1,14)            118.1096         estimate D2E/DX2                !
 ! A4    A(1,2,8)              122.148          estimate D2E/DX2                !
 ! A5    A(1,2,9)              118.0039         estimate D2E/DX2                !
 ! A6    A(8,2,9)              119.848          estimate D2E/DX2                !
 ! A7    A(6,3,11)             121.1577         estimate D2E/DX2                !
 ! A8    A(6,3,12)             117.8333         estimate D2E/DX2                !
 ! A9    A(11,3,12)            121.009          estimate D2E/DX2                !
 ! A10   A(10,5,13)            110.3823         estimate D2E/DX2                !
 ! A11   A(10,5,16)            125.5708         estimate D2E/DX2                !
 ! A12   A(13,5,16)            124.0469         estimate D2E/DX2                !
 ! A13   A(3,6,9)              121.7344         estimate D2E/DX2                !
 ! A14   A(3,6,13)             127.6377         estimate D2E/DX2                !
 ! A15   A(9,6,13)             110.6279         estimate D2E/DX2                !
 ! A16   A(2,9,6)              121.9553         estimate D2E/DX2                !
 ! A17   A(2,9,10)             130.7476         estimate D2E/DX2                !
 ! A18   A(6,9,10)             107.2971         estimate D2E/DX2                !
 ! A19   A(5,10,9)             105.4921         estimate D2E/DX2                !
 ! A20   A(5,10,15)            127.1492         estimate D2E/DX2                !
 ! A21   A(9,10,15)            127.3587         estimate D2E/DX2                !
 ! A22   A(1,12,3)             120.9869         estimate D2E/DX2                !
 ! A23   A(1,12,4)             119.7701         estimate D2E/DX2                !
 ! A24   A(3,12,4)             119.243          estimate D2E/DX2                !
 ! A25   A(5,13,6)             106.2006         estimate D2E/DX2                !
 ! A26   A(5,13,7)             126.6905         estimate D2E/DX2                !
 ! A27   A(6,13,7)             127.1089         estimate D2E/DX2                !
 ! A28   A(1,14,17)            125.6783         estimate D2E/DX2                !
 ! A29   A(14,17,18)           109.0664         estimate D2E/DX2                !
 ! A30   A(14,17,19)           110.2202         estimate D2E/DX2                !
 ! A31   A(14,17,20)           110.224          estimate D2E/DX2                !
 ! A32   A(18,17,19)           108.5975         estimate D2E/DX2                !
 ! A33   A(18,17,20)           108.5986         estimate D2E/DX2                !
 ! A34   A(19,17,20)           110.0909         estimate D2E/DX2                !
 ! D1    D(12,1,2,8)           179.9955         estimate D2E/DX2                !
 ! D2    D(12,1,2,9)             0.0015         estimate D2E/DX2                !
 ! D3    D(14,1,2,8)            -0.0029         estimate D2E/DX2                !
 ! D4    D(14,1,2,9)          -179.9969         estimate D2E/DX2                !
 ! D5    D(2,1,12,3)             0.0012         estimate D2E/DX2                !
 ! D6    D(2,1,12,4)          -179.9993         estimate D2E/DX2                !
 ! D7    D(14,1,12,3)          179.9997         estimate D2E/DX2                !
 ! D8    D(14,1,12,4)           -0.0008         estimate D2E/DX2                !
 ! D9    D(2,1,14,17)            0.0021         estimate D2E/DX2                !
 ! D10   D(12,1,14,17)        -179.9963         estimate D2E/DX2                !
 ! D11   D(1,2,9,6)             -0.0043         estimate D2E/DX2                !
 ! D12   D(1,2,9,10)          -179.9989         estimate D2E/DX2                !
 ! D13   D(8,2,9,6)           -179.9984         estimate D2E/DX2                !
 ! D14   D(8,2,9,10)             0.0069         estimate D2E/DX2                !
 ! D15   D(11,3,6,9)           179.9962         estimate D2E/DX2                !
 ! D16   D(11,3,6,13)           -0.0006         estimate D2E/DX2                !
 ! D17   D(12,3,6,9)            -0.0015         estimate D2E/DX2                !
 ! D18   D(12,3,6,13)         -179.9983         estimate D2E/DX2                !
 ! D19   D(6,3,12,1)            -0.0013         estimate D2E/DX2                !
 ! D20   D(6,3,12,4)           179.9992         estimate D2E/DX2                !
 ! D21   D(11,3,12,1)         -179.999          estimate D2E/DX2                !
 ! D22   D(11,3,12,4)            0.0015         estimate D2E/DX2                !
 ! D23   D(13,5,10,9)           -0.0025         estimate D2E/DX2                !
 ! D24   D(13,5,10,15)        -179.9979         estimate D2E/DX2                !
 ! D25   D(16,5,10,9)          179.9986         estimate D2E/DX2                !
 ! D26   D(16,5,10,15)           0.0032         estimate D2E/DX2                !
 ! D27   D(10,5,13,6)            0.001          estimate D2E/DX2                !
 ! D28   D(10,5,13,7)          179.9997         estimate D2E/DX2                !
 ! D29   D(16,5,13,6)          179.9999         estimate D2E/DX2                !
 ! D30   D(16,5,13,7)           -0.0013         estimate D2E/DX2                !
 ! D31   D(3,6,9,2)              0.0044         estimate D2E/DX2                !
 ! D32   D(3,6,9,10)          -179.9999         estimate D2E/DX2                !
 ! D33   D(13,6,9,2)          -179.9983         estimate D2E/DX2                !
 ! D34   D(13,6,9,10)           -0.0026         estimate D2E/DX2                !
 ! D35   D(3,6,13,5)           179.9981         estimate D2E/DX2                !
 ! D36   D(3,6,13,7)            -0.0006         estimate D2E/DX2                !
 ! D37   D(9,6,13,5)             0.001          estimate D2E/DX2                !
 ! D38   D(9,6,13,7)          -179.9978         estimate D2E/DX2                !
 ! D39   D(2,9,10,5)           179.9982         estimate D2E/DX2                !
 ! D40   D(2,9,10,15)           -0.0064         estimate D2E/DX2                !
 ! D41   D(6,9,10,5)             0.003          estimate D2E/DX2                !
 ! D42   D(6,9,10,15)          179.9984         estimate D2E/DX2                !
 ! D43   D(1,14,17,18)        -179.9971         estimate D2E/DX2                !
 ! D44   D(1,14,17,19)         -60.8606         estimate D2E/DX2                !
 ! D45   D(1,14,17,20)          60.8626         estimate D2E/DX2                !
 --------------------------------------------------------------------------------
 Trust Radius=3.00D-01 FncErr=1.00D-07 GrdErr=1.00D-06
 Number of steps in this run=    110 maximum allowed number of steps=    120.
 GradGradGradGradGradGradGradGradGradGradGradGradGradGradGradGradGradGrad

                          Input orientation:                          
 ---------------------------------------------------------------------
 Center     Atomic      Atomic             Coordinates (Angstroms)
 Number     Number       Type             X           Y           Z
 ---------------------------------------------------------------------
      1          6           0       -3.795200    1.310100   -0.013100
      2          6           0       -2.666700    2.169100   -0.062600
      3          6           0       -2.309200   -0.638900    0.145900
      4          1           0       -4.460000   -0.748000    0.129000
      5          6           0        0.746600    1.101900    0.054400
      6          6           0       -1.227600    0.236000    0.094700
      7          1           0        0.500200   -1.025200    0.206400
      8          1           0       -2.764200    3.243700   -0.142000
      9          6           0       -1.401000    1.590100   -0.005900
     10          6           0       -0.148400    2.162500   -0.033100
     11          1           0       -2.161300   -1.708100    0.225400
     12          6           0       -3.602300   -0.088400    0.090900
     13          7           0        0.079500   -0.072300    0.132200
     14          8           0       -5.068900    1.778400   -0.061900
     15          1           0        0.091000    3.215100   -0.107000
     16          1           0        1.825200    1.187400    0.060600
     17          6           0       -5.435200    3.104400   -0.162700
     18          1           0       -6.542100    3.174200   -0.180500
     19          1           0       -5.058300    3.674500    0.713100
     20          1           0       -5.037400    3.542300   -1.103000
 ---------------------------------------------------------------------
                    Distance matrix (angstroms):
                    1          2          3          4          5
     1  C    0.000000
     2  C    1.419100   0.000000
     3  C    2.456029   2.838334   0.000000
     4  H    2.167470   3.429593   2.153632   0.000000
     5  C    4.547071   3.578159   3.518049   5.525973   0.000000
     6  C    2.785297   2.415083   1.392096   3.379030   2.156124
     7  H    4.894105   4.506126   2.836480   4.968543   2.146712
     8  H    2.195082   1.081931   3.919757   4.345440   4.117232
     9  C    2.410528   1.393001   2.411703   3.852582   2.203216
    10  C    3.745148   2.518481   3.542448   5.204535   1.390523
    11  H    3.440355   3.920593   1.082305   2.493012   4.047372
    12  C    1.415567   2.448513   1.406479   1.082669   4.509000
    13  N    4.116484   3.550132   2.455018   4.589514   1.352709
    14  O    1.357939   2.433765   3.674570   2.605743   5.855870
    15  H    4.329018   2.949745   4.547333   6.039326   2.218440
    16  H    5.622222   4.599574   4.520610   6.576792   1.082001
    17  C    2.435466   2.923935   4.886656   3.984607   6.501676
    18  H    3.323906   4.005353   5.706462   4.451357   7.581211
    19  H    2.777260   2.930476   5.146327   4.500849   6.383496
    20  H    2.777348   2.930585   5.146383   4.500876   6.383556
                    6          7          8          9         10
     6  C    0.000000
     7  H    2.142054   0.000000
     8  H    3.385768   5.385276   0.000000
     9  C    1.368859   3.240282   2.147378   0.000000
    10  C    2.211879   3.261821   2.832536   1.377457   0.000000
    11  H    2.160649   2.747780   5.001879   3.392592   4.370370
    12  C    2.396758   4.209684   3.443769   2.769920   4.124482
    13  N    1.343490   1.044276   4.376948   2.230364   2.252464
    14  O    4.142355   6.240756   2.732245   3.673157   4.935553
    15  H    3.264112   4.271511   2.855558   2.208373   1.082008
    16  H    3.197798   2.583115   5.033091   3.251916   2.203338
    17  C    5.098811   7.240083   2.674710   4.311898   5.371613
    18  H    6.078870   8.208449   3.778735   5.382450   6.474926
    19  H    5.184589   7.296633   2.485896   4.270542   5.191346
    20  H    5.184658   7.296684   2.485985   4.270611   5.191421
                   11         12         13         14         15
    11  H    0.000000
    12  C    2.172096   0.000000
    13  N    2.775917   3.682067   0.000000
    14  O    4.548886   2.378908   5.474376   0.000000
    15  H    5.424135   4.959107   3.296111   5.356371   0.000000
    16  H    4.929834   5.575513   2.153936   6.920470   2.673407
    17  C    5.833455   3.690231   6.371052   1.379352   5.527589
    18  H    6.572139   4.400073   7.381269   2.032890   6.633633
    19  H    6.132116   4.082461   6.385370   2.048398   5.234396
    20  H    6.132153   4.082510   6.385430   2.048469   5.234459
                   16         17         18         19         20
    16  H    0.000000
    17  C    7.512534   0.000000
    18  H    8.603326   1.109241   0.000000
    19  H    7.348061   1.110898   1.802910   0.000000
    20  H    7.348115   1.110930   1.802949   1.821025   0.000000
 Stoichiometry    C9H9NO
 Framework group  C1[X(C9H9NO)]
 Deg. of freedom    54
 Full point group                 C1      NOp   1
 Largest Abelian subgroup         C1      NOp   1
 Largest concise Abelian subgroup C1      NOp   1
                         Standard orientation:                         
 ---------------------------------------------------------------------
 Center     Atomic      Atomic             Coordinates (Angstroms)
 Number     Number       Type             X           Y           Z
 ---------------------------------------------------------------------
      1          6           0       -1.419656    0.331061   -0.000027
      2          6           0       -0.598710   -0.826476   -0.000044
      3          6           0        0.581601    1.754804    0.000000
      4          1           0       -1.439570    2.498440    0.000033
      5          6           0        2.979442   -0.819498    0.000020
      6          6           0        1.353013    0.595988   -0.000016
      7          1           0        3.379668    1.289575    0.000028
      8          1           0       -1.012870   -1.826000    0.000001
      9          6           0        0.782873   -0.648485    0.000006
     10          6           0        1.807947   -1.568600   -0.000015
     11          1           0        1.042271    2.734175    0.000043
     12          6           0       -0.817632    1.612231    0.000008
     13          7           0        2.693253    0.502590    0.000005
     14          8           0       -2.775807    0.261394   -0.000011
     15          1           0        1.722062   -2.647194    0.000018
     16          1           0        3.983835   -1.221891    0.000037
     17          6           0       -3.521750   -0.898856    0.000032
     18          1           0       -4.599564   -0.636688   -0.000017
     19          1           0       -3.302430   -1.496358   -0.910453
     20          1           0       -3.302480   -1.496354    0.910572
 ---------------------------------------------------------------------
 Rotational constants (GHZ):      2.9265726      0.7553697      0.6027950
 Standard basis: 6-311++G(d,p) (5D, 7F)
 There are   316 symmetry adapted cartesian basis functions of A   symmetry.
 There are   305 symmetry adapted basis functions of A   symmetry.
   305 basis functions,   477 primitive gaussians,   316 cartesian basis functions
    39 alpha electrons       39 beta electrons
       nuclear repulsion energy       574.0257677127 Hartrees.
 NAtoms=   20 NActive=   20 NUniq=   20 SFac= 1.00D+00 NAtFMM=   60 NAOKFM=F Big=F
 Integral buffers will be    131072 words long.
 Raffenetti 2 integral format.
 Two-electron integral symmetry is turned on.
 One-electron integrals computed using PRISM.
 NBasis=   305 RedAO= T EigKep=  2.29D-06  NBF=   305
 NBsUse=   302 1.00D-06 EigRej=  9.51D-07 NBFU=   302
 ExpMin= 3.60D-02 ExpMax= 8.59D+03 ExpMxC= 1.30D+03 IAcc=3 IRadAn=         5 AccDes= 0.00D+00
 Harris functional with IExCor= 1009 and IRadAn=       5 diagonalized for initial guess.
 HarFok:  IExCor= 1009 AccDes= 0.00D+00 IRadAn=         5 IDoV= 1 UseB2=F ITyADJ=14
 ICtDFT=  3500011 ScaDFX=  1.000000  1.000000  1.000000  1.000000
 FoFCou: FMM=F IPFlag=           0 FMFlag=      100000 FMFlg1=           0
         NFxFlg=           0 DoJE=T BraDBF=F KetDBF=T FulRan=T
         wScrn=  0.000000 ICntrl=     500 IOpCl=  0 I1Cent=   200000004 NGrid=           0
         NMat0=    1 NMatS0=      1 NMatT0=    0 NMatD0=    1 NMtDS0=    0 NMtDT0=    0
 Petite list used in FoFCou.
 Initial guess <Sx>= 0.0000 <Sy>= 0.0000 <Sz>= 0.0000 <S**2>= 0.0000 S= 0.0000
 Keep R1 and R2 ints in memory in canonical form, NReq=2193923028.
 Requested convergence on RMS density matrix=1.00D-08 within 128 cycles.
 Requested convergence on MAX density matrix=1.00D-06.
 Requested convergence on             energy=1.00D-06.
 No special actions if energy rises.
 SCF Done:  E(UPBE1PBE) =  -477.892674506     A.U. after   15 cycles
            NFock= 15  Conv=0.24D-08     -V/T= 2.0037
 <Sx>= 0.0000 <Sy>= 0.0000 <Sz>= 0.0000 <S**2>= 0.0000 S= 0.0000
 <L.S>= 0.000000000000E+00
 Annihilation of the first spin contaminant:
 S**2 before annihilation     0.0000,   after     0.0000

 **********************************************************************

            Population analysis using the SCF density.

 **********************************************************************

 Orbital symmetries:
 Alpha Orbitals:
       Occupied  (A) (A) (A) (A) (A) (A) (A) (A) (A) (A) (A) (A)
                 (A) (A) (A) (A) (A) (A) (A) (A) (A) (A) (A) (A)
                 (A) (A) (A) (A) (A) (A) (A) (A) (A) (A) (A) (A)
                 (A) (A) (A)
       Virtual   (A) (A) (A) (A) (A) (A) (A) (A) (A) (A) (A) (A)
                 (A) (A) (A) (A) (A) (A) (A) (A) (A) (A) (A) (A)
                 (A) (A) (A) (A) (A) (A) (A) (A) (A) (A) (A) (A)
                 (A) (A) (A) (A) (A) (A) (A) (A) (A) (A) (A) (A)
                 (A) (A) (A) (A) (A) (A) (A) (A) (A) (A) (A) (A)
                 (A) (A) (A) (A) (A) (A) (A) (A) (A) (A) (A) (A)
                 (A) (A) (A) (A) (A) (A) (A) (A) (A) (A) (A) (A)
                 (A) (A) (A) (A) (A) (A) (A) (A) (A) (A) (A) (A)
                 (A) (A) (A) (A) (A) (A) (A) (A) (A) (A) (A) (A)
                 (A) (A) (A) (A) (A) (A) (A) (A) (A) (A) (A) (A)
                 (A) (A) (A) (A) (A) (A) (A) (A) (A) (A) (A) (A)
                 (A) (A) (A) (A) (A) (A) (A) (A) (A) (A) (A) (A)
                 (A) (A) (A) (A) (A) (A) (A) (A) (A) (A) (A) (A)
                 (A) (A) (A) (A) (A) (A) (A) (A) (A) (A) (A) (A)
                 (A) (A) (A) (A) (A) (A) (A) (A) (A) (A) (A) (A)
                 (A) (A) (A) (A) (A) (A) (A) (A) (A) (A) (A) (A)
                 (A) (A) (A) (A) (A) (A) (A) (A) (A) (A) (A) (A)
                 (A) (A) (A) (A) (A) (A) (A) (A) (A) (A) (A) (A)
                 (A) (A) (A) (A) (A) (A) (A) (A) (A) (A) (A) (A)
                 (A) (A) (A) (A) (A) (A) (A) (A) (A) (A) (A) (A)
                 (A) (A) (A) (A) (A) (A) (A) (A) (A) (A) (A) (A)
                 (A) (A) (A) (A) (A) (A) (A) (A) (A) (A) (A)
 Beta  Orbitals:
       Occupied  (A) (A) (A) (A) (A) (A) (A) (A) (A) (A) (A) (A)
                 (A) (A) (A) (A) (A) (A) (A) (A) (A) (A) (A) (A)
                 (A) (A) (A) (A) (A) (A) (A) (A) (A) (A) (A) (A)
                 (A) (A) (A)
       Virtual   (A) (A) (A) (A) (A) (A) (A) (A) (A) (A) (A) (A)
                 (A) (A) (A) (A) (A) (A) (A) (A) (A) (A) (A) (A)
                 (A) (A) (A) (A) (A) (A) (A) (A) (A) (A) (A) (A)
                 (A) (A) (A) (A) (A) (A) (A) (A) (A) (A) (A) (A)
                 (A) (A) (A) (A) (A) (A) (A) (A) (A) (A) (A) (A)
                 (A) (A) (A) (A) (A) (A) (A) (A) (A) (A) (A) (A)
                 (A) (A) (A) (A) (A) (A) (A) (A) (A) (A) (A) (A)
                 (A) (A) (A) (A) (A) (A) (A) (A) (A) (A) (A) (A)
                 (A) (A) (A) (A) (A) (A) (A) (A) (A) (A) (A) (A)
                 (A) (A) (A) (A) (A) (A) (A) (A) (A) (A) (A) (A)
                 (A) (A) (A) (A) (A) (A) (A) (A) (A) (A) (A) (A)
                 (A) (A) (A) (A) (A) (A) (A) (A) (A) (A) (A) (A)
                 (A) (A) (A) (A) (A) (A) (A) (A) (A) (A) (A) (A)
                 (A) (A) (A) (A) (A) (A) (A) (A) (A) (A) (A) (A)
                 (A) (A) (A) (A) (A) (A) (A) (A) (A) (A) (A) (A)
                 (A) (A) (A) (A) (A) (A) (A) (A) (A) (A) (A) (A)
                 (A) (A) (A) (A) (A) (A) (A) (A) (A) (A) (A) (A)
                 (A) (A) (A) (A) (A) (A) (A) (A) (A) (A) (A) (A)
                 (A) (A) (A) (A) (A) (A) (A) (A) (A) (A) (A) (A)
                 (A) (A) (A) (A) (A) (A) (A) (A) (A) (A) (A) (A)
                 (A) (A) (A) (A) (A) (A) (A) (A) (A) (A) (A) (A)
                 (A) (A) (A) (A) (A) (A) (A) (A) (A) (A) (A)
 The electronic state is 1-A.
 Alpha  occ. eigenvalues --  -19.22383 -14.43312 -10.28166 -10.27306 -10.25393
 Alpha  occ. eigenvalues --  -10.24280 -10.22704 -10.21869 -10.21482 -10.21055
 Alpha  occ. eigenvalues --  -10.20416  -1.09722  -1.02966  -0.86780  -0.81535
 Alpha  occ. eigenvalues --   -0.77544  -0.73771  -0.71426  -0.63791  -0.61924
 Alpha  occ. eigenvalues --   -0.59985  -0.56371  -0.53441  -0.50558  -0.48228
 Alpha  occ. eigenvalues --   -0.47829  -0.45680  -0.45086  -0.43760  -0.42357
 Alpha  occ. eigenvalues --   -0.40338  -0.40148  -0.37173  -0.36471  -0.32340
 Alpha  occ. eigenvalues --   -0.31081  -0.29494  -0.21586  -0.20988
 Alpha virt. eigenvalues --   -0.01476  -0.00596   0.00582   0.01562   0.02693
 Alpha virt. eigenvalues --    0.03058   0.03379   0.04183   0.04847   0.05176
 Alpha virt. eigenvalues --    0.05804   0.05916   0.06932   0.07260   0.07960
 Alpha virt. eigenvalues --    0.09202   0.10193   0.10782   0.10835   0.11298
 Alpha virt. eigenvalues --    0.11560   0.12289   0.12366   0.13287   0.13422
 Alpha virt. eigenvalues --    0.13829   0.14285   0.14522   0.15272   0.15730
 Alpha virt. eigenvalues --    0.16296   0.16818   0.17546   0.17699   0.17895
 Alpha virt. eigenvalues --    0.18392   0.18518   0.19061   0.20115   0.20725
 Alpha virt. eigenvalues --    0.20825   0.21209   0.21593   0.22127   0.23170
 Alpha virt. eigenvalues --    0.24064   0.24785   0.25259   0.25706   0.25717
 Alpha virt. eigenvalues --    0.27091   0.27893   0.28291   0.29241   0.29485
 Alpha virt. eigenvalues --    0.30203   0.31146   0.31766   0.32958   0.32994
 Alpha virt. eigenvalues --    0.33419   0.33944   0.34918   0.35929   0.36443
 Alpha virt. eigenvalues --    0.37078   0.38551   0.39683   0.42319   0.42664
 Alpha virt. eigenvalues --    0.45423   0.45991   0.47202   0.49699   0.51601
 Alpha virt. eigenvalues --    0.53788   0.55552   0.56118   0.56490   0.58553
 Alpha virt. eigenvalues --    0.59132   0.59666   0.60547   0.62667   0.62881
 Alpha virt. eigenvalues --    0.62910   0.64502   0.65807   0.65871   0.66655
 Alpha virt. eigenvalues --    0.68793   0.69282   0.69951   0.70833   0.72530
 Alpha virt. eigenvalues --    0.73985   0.74564   0.75575   0.76936   0.79067
 Alpha virt. eigenvalues --    0.80389   0.81638   0.82810   0.84274   0.86065
 Alpha virt. eigenvalues --    0.87066   0.87151   0.89390   0.89964   0.91458
 Alpha virt. eigenvalues --    0.93370   0.94170   0.94994   0.95821   0.96960
 Alpha virt. eigenvalues --    0.98070   1.00337   1.01788   1.03123   1.04522
 Alpha virt. eigenvalues --    1.04599   1.05981   1.08469   1.08729   1.09886
 Alpha virt. eigenvalues --    1.12683   1.15257   1.15875   1.17896   1.18510
 Alpha virt. eigenvalues --    1.20292   1.22873   1.29275   1.32384   1.32825
 Alpha virt. eigenvalues --    1.36158   1.40319   1.44085   1.47252   1.52033
 Alpha virt. eigenvalues --    1.53117   1.53342   1.55956   1.56123   1.57092
 Alpha virt. eigenvalues --    1.58695   1.60143   1.60709   1.61867   1.64002
 Alpha virt. eigenvalues --    1.67771   1.70069   1.70881   1.72489   1.73095
 Alpha virt. eigenvalues --    1.74019   1.75113   1.77095   1.77549   1.79212
 Alpha virt. eigenvalues --    1.84584   1.85910   1.86942   1.89514   1.89876
 Alpha virt. eigenvalues --    1.90863   1.92220   1.93826   1.94356   1.99300
 Alpha virt. eigenvalues --    1.99729   2.04098   2.04488   2.07306   2.07845
 Alpha virt. eigenvalues --    2.10259   2.11152   2.12297   2.14324   2.17006
 Alpha virt. eigenvalues --    2.19396   2.21127   2.21308   2.32059   2.34528
 Alpha virt. eigenvalues --    2.39213   2.40076   2.45862   2.46888   2.48933
 Alpha virt. eigenvalues --    2.51532   2.53417   2.54807   2.55676   2.56408
 Alpha virt. eigenvalues --    2.60795   2.62894   2.65266   2.68782   2.70397
 Alpha virt. eigenvalues --    2.70511   2.73533   2.74069   2.76705   2.78109
 Alpha virt. eigenvalues --    2.78584   2.81103   2.83385   2.83594   2.84856
 Alpha virt. eigenvalues --    2.87120   2.94288   2.94878   2.95647   2.96499
 Alpha virt. eigenvalues --    2.98680   3.00055   3.04747   3.07144   3.13569
 Alpha virt. eigenvalues --    3.14343   3.16243   3.22409   3.24557   3.30606
 Alpha virt. eigenvalues --    3.35194   3.37627   3.42448   3.45249   3.48562
 Alpha virt. eigenvalues --    3.54841   3.57313   3.65332   3.67012   3.71674
 Alpha virt. eigenvalues --    3.77584   3.81179   3.83015   3.92528   4.01990
 Alpha virt. eigenvalues --    4.10771   4.11424   4.17036   4.23945   4.31375
 Alpha virt. eigenvalues --    4.46435   4.87833   4.95223   5.09784   5.21237
 Alpha virt. eigenvalues --    5.42534   5.91308  23.74148  23.99588  24.00925
 Alpha virt. eigenvalues --   24.06064  24.10550  24.18412  24.19212  24.26516
 Alpha virt. eigenvalues --   24.38744  35.78335  50.11668
  Beta  occ. eigenvalues --  -19.22383 -14.43312 -10.28166 -10.27306 -10.25393
  Beta  occ. eigenvalues --  -10.24280 -10.22704 -10.21869 -10.21482 -10.21055
  Beta  occ. eigenvalues --  -10.20416  -1.09722  -1.02966  -0.86780  -0.81535
  Beta  occ. eigenvalues --   -0.77544  -0.73771  -0.71426  -0.63791  -0.61924
  Beta  occ. eigenvalues --   -0.59985  -0.56371  -0.53441  -0.50558  -0.48228
  Beta  occ. eigenvalues --   -0.47829  -0.45680  -0.45086  -0.43760  -0.42357
  Beta  occ. eigenvalues --   -0.40338  -0.40148  -0.37173  -0.36471  -0.32340
  Beta  occ. eigenvalues --   -0.31081  -0.29494  -0.21586  -0.20988
  Beta virt. eigenvalues --   -0.01476  -0.00596   0.00582   0.01562   0.02693
  Beta virt. eigenvalues --    0.03058   0.03379   0.04183   0.04847   0.05176
  Beta virt. eigenvalues --    0.05804   0.05916   0.06932   0.07260   0.07960
  Beta virt. eigenvalues --    0.09202   0.10193   0.10782   0.10835   0.11298
  Beta virt. eigenvalues --    0.11560   0.12289   0.12366   0.13287   0.13422
  Beta virt. eigenvalues --    0.13829   0.14285   0.14522   0.15272   0.15730
  Beta virt. eigenvalues --    0.16296   0.16818   0.17546   0.17699   0.17895
  Beta virt. eigenvalues --    0.18392   0.18518   0.19061   0.20115   0.20725
  Beta virt. eigenvalues --    0.20825   0.21209   0.21593   0.22127   0.23170
  Beta virt. eigenvalues --    0.24064   0.24785   0.25259   0.25706   0.25717
  Beta virt. eigenvalues --    0.27091   0.27893   0.28291   0.29241   0.29485
  Beta virt. eigenvalues --    0.30203   0.31146   0.31766   0.32958   0.32994
  Beta virt. eigenvalues --    0.33419   0.33944   0.34918   0.35929   0.36443
  Beta virt. eigenvalues --    0.37078   0.38551   0.39683   0.42319   0.42664
  Beta virt. eigenvalues --    0.45423   0.45991   0.47202   0.49699   0.51601
  Beta virt. eigenvalues --    0.53788   0.55552   0.56118   0.56490   0.58553
  Beta virt. eigenvalues --    0.59132   0.59666   0.60547   0.62667   0.62881
  Beta virt. eigenvalues --    0.62910   0.64502   0.65807   0.65871   0.66655
  Beta virt. eigenvalues --    0.68793   0.69282   0.69951   0.70833   0.72530
  Beta virt. eigenvalues --    0.73985   0.74564   0.75575   0.76936   0.79067
  Beta virt. eigenvalues --    0.80389   0.81638   0.82810   0.84274   0.86065
  Beta virt. eigenvalues --    0.87066   0.87151   0.89390   0.89964   0.91458
  Beta virt. eigenvalues --    0.93370   0.94170   0.94994   0.95821   0.96960
  Beta virt. eigenvalues --    0.98070   1.00337   1.01788   1.03123   1.04522
  Beta virt. eigenvalues --    1.04599   1.05981   1.08469   1.08729   1.09886
  Beta virt. eigenvalues --    1.12683   1.15257   1.15875   1.17896   1.18510
  Beta virt. eigenvalues --    1.20292   1.22873   1.29275   1.32384   1.32825
  Beta virt. eigenvalues --    1.36158   1.40319   1.44085   1.47252   1.52033
  Beta virt. eigenvalues --    1.53117   1.53342   1.55956   1.56123   1.57092
  Beta virt. eigenvalues --    1.58695   1.60143   1.60709   1.61867   1.64002
  Beta virt. eigenvalues --    1.67771   1.70069   1.70881   1.72489   1.73095
  Beta virt. eigenvalues --    1.74019   1.75113   1.77095   1.77549   1.79212
  Beta virt. eigenvalues --    1.84584   1.85910   1.86942   1.89514   1.89876
  Beta virt. eigenvalues --    1.90863   1.92220   1.93826   1.94356   1.99300
  Beta virt. eigenvalues --    1.99729   2.04098   2.04488   2.07306   2.07845
  Beta virt. eigenvalues --    2.10259   2.11152   2.12297   2.14324   2.17006
  Beta virt. eigenvalues --    2.19396   2.21127   2.21308   2.32059   2.34528
  Beta virt. eigenvalues --    2.39213   2.40076   2.45862   2.46888   2.48933
  Beta virt. eigenvalues --    2.51532   2.53417   2.54807   2.55676   2.56408
  Beta virt. eigenvalues --    2.60795   2.62894   2.65266   2.68782   2.70397
  Beta virt. eigenvalues --    2.70511   2.73533   2.74069   2.76705   2.78109
  Beta virt. eigenvalues --    2.78584   2.81103   2.83385   2.83594   2.84856
  Beta virt. eigenvalues --    2.87120   2.94288   2.94878   2.95647   2.96499
  Beta virt. eigenvalues --    2.98680   3.00055   3.04747   3.07144   3.13569
  Beta virt. eigenvalues --    3.14343   3.16243   3.22409   3.24557   3.30606
  Beta virt. eigenvalues --    3.35194   3.37627   3.42448   3.45249   3.48562
  Beta virt. eigenvalues --    3.54841   3.57313   3.65332   3.67012   3.71674
  Beta virt. eigenvalues --    3.77584   3.81179   3.83015   3.92528   4.01990
  Beta virt. eigenvalues --    4.10771   4.11424   4.17036   4.23945   4.31375
  Beta virt. eigenvalues --    4.46435   4.87833   4.95223   5.09784   5.21237
  Beta virt. eigenvalues --    5.42534   5.91308  23.74148  23.99588  24.00925
  Beta virt. eigenvalues --   24.06064  24.10550  24.18412  24.19212  24.26516
  Beta virt. eigenvalues --   24.38744  35.78335  50.11668
          Condensed to atoms (all electrons):
               1          2          3          4          5          6
     1  C   10.342172  -0.476324  -0.577273  -0.128803  -0.134132  -0.466837
     2  C   -0.476324   9.304570  -0.194351  -0.109615  -0.476639  -0.613781
     3  C   -0.577273  -0.194351   7.677602  -0.051556   0.379684   2.472838
     4  H   -0.128803  -0.109615  -0.051556   0.494587  -0.013349  -0.045271
     5  C   -0.134132  -0.476639   0.379684  -0.013349   6.433593   1.120563
     6  C   -0.466837  -0.613781   2.472838  -0.045271   1.120563  15.653319
     7  H   -0.001085  -0.002760   0.012658  -0.000483  -0.041991  -0.036476
     8  H   -0.215148   0.448292   0.080574  -0.002949   0.021646   0.236277
     9  C   -2.429951  -0.108548  -2.082638   0.075600  -0.594186  -1.303789
    10  C    0.441060   1.058201  -2.032401   0.020791  -0.446826  -5.705047
    11  H    0.027769   0.013126   0.448441  -0.015704   0.026697  -0.086101
    12  C   -0.143455  -3.232319   0.616088   0.573439  -0.220060  -3.854752
    13  N    0.020276   0.056224  -0.148099  -0.003467   0.118686  -0.056076
    14  O    0.281014   0.240734  -0.016444  -0.022439  -0.000911   0.076234
    15  H    0.020170   0.013626  -0.013937   0.000240  -0.127577   0.015533
    16  H    0.006212   0.010759  -0.027621  -0.000251   0.415384  -0.050464
    17  C    0.079213  -0.261302  -0.002273   0.001545  -0.005616   0.003468
    18  H    0.068100  -0.053617  -0.002678   0.001225  -0.000572  -0.010988
    19  H   -0.022339   0.019510  -0.002923  -0.000163   0.000077   0.005160
    20  H   -0.022399   0.019545  -0.002919  -0.000163   0.000077   0.005142
               7          8          9         10         11         12
     1  C   -0.001085  -0.215148  -2.429951   0.441060   0.027769  -0.143455
     2  C   -0.002760   0.448292  -0.108548   1.058201   0.013126  -3.232319
     3  C    0.012658   0.080574  -2.082638  -2.032401   0.448441   0.616088
     4  H   -0.000483  -0.002949   0.075600   0.020791  -0.015704   0.573439
     5  C   -0.041991   0.021646  -0.594186  -0.446826   0.026697  -0.220060
     6  C   -0.036476   0.236277  -1.303789  -5.705047  -0.086101  -3.854752
     7  H    0.368713   0.000350  -0.005522  -0.004770   0.001391  -0.003324
     8  H    0.000350   0.515647   0.039094  -0.166487   0.002473  -0.097221
     9  C   -0.005522   0.039094  10.254650   0.923999  -0.076932   0.871682
    10  C   -0.004770  -0.166487   0.923999   9.738909  -0.045533   0.856170
    11  H    0.001391   0.002473  -0.076932  -0.045533   0.528074  -0.014759
    12  C   -0.003324  -0.097221   0.871682   0.856170  -0.014759  11.522489
    13  N    0.397368  -0.003286  -0.151883   0.033040   0.002549   0.000803
    14  O    0.000186  -0.019725   0.013639  -0.000802  -0.002176  -0.720275
    15  H    0.001306   0.005261  -0.016993   0.376483   0.000098  -0.004540
    16  H   -0.004515  -0.001023   0.015989   0.035125   0.000286  -0.002419
    17  C   -0.000101  -0.010864  -0.113207  -0.007974  -0.001205   0.068518
    18  H   -0.000025  -0.000369  -0.007236   0.003141  -0.000049   0.044455
    19  H    0.000010  -0.007040  -0.000815   0.000470  -0.000180  -0.017085
    20  H    0.000009  -0.007039  -0.000794   0.000483  -0.000180  -0.017064
              13         14         15         16         17         18
     1  C    0.020276   0.281014   0.020170   0.006212   0.079213   0.068100
     2  C    0.056224   0.240734   0.013626   0.010759  -0.261302  -0.053617
     3  C   -0.148099  -0.016444  -0.013937  -0.027621  -0.002273  -0.002678
     4  H   -0.003467  -0.022439   0.000240  -0.000251   0.001545   0.001225
     5  C    0.118686  -0.000911  -0.127577   0.415384  -0.005616  -0.000572
     6  C   -0.056076   0.076234   0.015533  -0.050464   0.003468  -0.010988
     7  H    0.397368   0.000186   0.001306  -0.004515  -0.000101  -0.000025
     8  H   -0.003286  -0.019725   0.005261  -0.001023  -0.010864  -0.000369
     9  C   -0.151883   0.013639  -0.016993   0.015989  -0.113207  -0.007236
    10  C    0.033040  -0.000802   0.376483   0.035125  -0.007974   0.003141
    11  H    0.002549  -0.002176   0.000098   0.000286  -0.001205  -0.000049
    12  C    0.000803  -0.720275  -0.004540  -0.002419   0.068518   0.044455
    13  N    6.836152   0.001474   0.024220  -0.072790   0.000686   0.000049
    14  O    0.001474   8.257338   0.000033  -0.000086   0.185217  -0.078706
    15  H    0.024220   0.000033   0.508489  -0.008010   0.003015   0.000143
    16  H   -0.072790  -0.000086  -0.008010   0.473452  -0.000031   0.000004
    17  C    0.000686   0.185217   0.003015  -0.000031   5.297535   0.394233
    18  H    0.000049  -0.078706   0.000143   0.000004   0.394233   0.495533
    19  H    0.000115  -0.048978   0.000179   0.000006   0.410686  -0.023646
    20  H    0.000115  -0.048969   0.000179   0.000006   0.410662  -0.023652
              19         20
     1  C   -0.022339  -0.022399
     2  C    0.019510   0.019545
     3  C   -0.002923  -0.002919
     4  H   -0.000163  -0.000163
     5  C    0.000077   0.000077
     6  C    0.005160   0.005142
     7  H    0.000010   0.000009
     8  H   -0.007040  -0.007039
     9  C   -0.000815  -0.000794
    10  C    0.000470   0.000483
    11  H   -0.000180  -0.000180
    12  C   -0.017085  -0.017064
    13  N    0.000115   0.000115
    14  O   -0.048978  -0.048969
    15  H    0.000179   0.000179
    16  H    0.000006   0.000006
    17  C    0.410686   0.410662
    18  H   -0.023646  -0.023652
    19  H    0.580324  -0.070918
    20  H   -0.070918   0.580327
          Atomic-Atomic Spin Densities.
               1          2          3          4          5          6
     1  C    0.000000   0.000000   0.000000   0.000000   0.000000   0.000000
     2  C    0.000000   0.000000   0.000000   0.000000   0.000000   0.000000
     3  C    0.000000   0.000000   0.000000   0.000000   0.000000   0.000000
     4  H    0.000000   0.000000   0.000000   0.000000   0.000000   0.000000
     5  C    0.000000   0.000000   0.000000   0.000000   0.000000   0.000000
     6  C    0.000000   0.000000   0.000000   0.000000   0.000000   0.000000
     7  H    0.000000   0.000000   0.000000   0.000000   0.000000   0.000000
     8  H    0.000000   0.000000   0.000000   0.000000   0.000000   0.000000
     9  C    0.000000   0.000000   0.000000   0.000000   0.000000   0.000000
    10  C    0.000000   0.000000   0.000000   0.000000   0.000000   0.000000
    11  H    0.000000   0.000000   0.000000   0.000000   0.000000   0.000000
    12  C    0.000000   0.000000   0.000000   0.000000   0.000000   0.000000
    13  N    0.000000   0.000000   0.000000   0.000000   0.000000   0.000000
    14  O    0.000000   0.000000   0.000000   0.000000   0.000000   0.000000
    15  H    0.000000   0.000000   0.000000   0.000000   0.000000   0.000000
    16  H    0.000000   0.000000   0.000000   0.000000   0.000000   0.000000
    17  C    0.000000   0.000000   0.000000   0.000000   0.000000   0.000000
    18  H    0.000000   0.000000   0.000000   0.000000   0.000000   0.000000
    19  H    0.000000   0.000000   0.000000   0.000000   0.000000   0.000000
    20  H    0.000000   0.000000   0.000000   0.000000   0.000000   0.000000
               7          8          9         10         11         12
     1  C    0.000000   0.000000   0.000000   0.000000   0.000000   0.000000
     2  C    0.000000   0.000000   0.000000   0.000000   0.000000   0.000000
     3  C    0.000000   0.000000   0.000000   0.000000   0.000000   0.000000
     4  H    0.000000   0.000000   0.000000   0.000000   0.000000   0.000000
     5  C    0.000000   0.000000   0.000000   0.000000   0.000000   0.000000
     6  C    0.000000   0.000000   0.000000   0.000000   0.000000   0.000000
     7  H    0.000000   0.000000   0.000000   0.000000   0.000000   0.000000
     8  H    0.000000   0.000000   0.000000   0.000000   0.000000   0.000000
     9  C    0.000000   0.000000   0.000000   0.000000   0.000000   0.000000
    10  C    0.000000   0.000000   0.000000   0.000000   0.000000   0.000000
    11  H    0.000000   0.000000   0.000000   0.000000   0.000000   0.000000
    12  C    0.000000   0.000000   0.000000   0.000000   0.000000   0.000000
    13  N    0.000000   0.000000   0.000000   0.000000   0.000000   0.000000
    14  O    0.000000   0.000000   0.000000   0.000000   0.000000   0.000000
    15  H    0.000000   0.000000   0.000000   0.000000   0.000000   0.000000
    16  H    0.000000   0.000000   0.000000   0.000000   0.000000   0.000000
    17  C    0.000000   0.000000   0.000000   0.000000   0.000000   0.000000
    18  H    0.000000   0.000000   0.000000   0.000000   0.000000   0.000000
    19  H    0.000000   0.000000   0.000000   0.000000   0.000000   0.000000
    20  H    0.000000   0.000000   0.000000   0.000000   0.000000   0.000000
              13         14         15         16         17         18
     1  C    0.000000   0.000000   0.000000   0.000000   0.000000   0.000000
     2  C    0.000000   0.000000   0.000000   0.000000   0.000000   0.000000
     3  C    0.000000   0.000000   0.000000   0.000000   0.000000   0.000000
     4  H    0.000000   0.000000   0.000000   0.000000   0.000000   0.000000
     5  C    0.000000   0.000000   0.000000   0.000000   0.000000   0.000000
     6  C    0.000000   0.000000   0.000000   0.000000   0.000000   0.000000
     7  H    0.000000   0.000000   0.000000   0.000000   0.000000   0.000000
     8  H    0.000000   0.000000   0.000000   0.000000   0.000000   0.000000
     9  C    0.000000   0.000000   0.000000   0.000000   0.000000   0.000000
    10  C    0.000000   0.000000   0.000000   0.000000   0.000000   0.000000
    11  H    0.000000   0.000000   0.000000   0.000000   0.000000   0.000000
    12  C    0.000000   0.000000   0.000000   0.000000   0.000000   0.000000
    13  N    0.000000   0.000000   0.000000   0.000000   0.000000   0.000000
    14  O    0.000000   0.000000   0.000000   0.000000   0.000000   0.000000
    15  H    0.000000   0.000000   0.000000   0.000000   0.000000   0.000000
    16  H    0.000000   0.000000   0.000000   0.000000   0.000000   0.000000
    17  C    0.000000   0.000000   0.000000   0.000000   0.000000   0.000000
    18  H    0.000000   0.000000   0.000000   0.000000   0.000000   0.000000
    19  H    0.000000   0.000000   0.000000   0.000000   0.000000   0.000000
    20  H    0.000000   0.000000   0.000000   0.000000   0.000000   0.000000
              19         20
     1  C    0.000000   0.000000
     2  C    0.000000   0.000000
     3  C    0.000000   0.000000
     4  H    0.000000   0.000000
     5  C    0.000000   0.000000
     6  C    0.000000   0.000000
     7  H    0.000000   0.000000
     8  H    0.000000   0.000000
     9  C    0.000000   0.000000
    10  C    0.000000   0.000000
    11  H    0.000000   0.000000
    12  C    0.000000   0.000000
    13  N    0.000000   0.000000
    14  O    0.000000   0.000000
    15  H    0.000000   0.000000
    16  H    0.000000   0.000000
    17  C    0.000000   0.000000
    18  H    0.000000   0.000000
    19  H    0.000000   0.000000
    20  H    0.000000   0.000000
 Mulliken charges and spin densities:
               1          2
     1  C   -0.668242   0.000000
     2  C    0.344670   0.000000
     3  C   -0.532770   0.000000
     4  H    0.226787   0.000000
     5  C   -0.454549   0.000000
     6  C   -1.358952   0.000000
     7  H    0.319063   0.000000
     8  H    0.181536   0.000000
     9  C    0.697840   0.000000
    10  C    0.921969   0.000000
    11  H    0.191915   0.000000
    12  C   -0.226371   0.000000
    13  N   -0.056156   0.000000
    14  O   -0.096357   0.000000
    15  H    0.202082   0.000000
    16  H    0.209988   0.000000
    17  C   -0.452208   0.000000
    18  H    0.194655   0.000000
    19  H    0.177550   0.000000
    20  H    0.177550   0.000000
 Sum of Mulliken charges =   0.00000   0.00000
 Mulliken charges and spin densities with hydrogens summed into heavy atoms:
               1          2
     1  C   -0.668242   0.000000
     2  C    0.526206   0.000000
     3  C   -0.340855   0.000000
     5  C   -0.244561   0.000000
     6  C   -1.358952   0.000000
     9  C    0.697840   0.000000
    10  C    1.124051   0.000000
    12  C    0.000416   0.000000
    13  N    0.262906   0.000000
    14  O   -0.096357   0.000000
    17  C    0.097548   0.000000
 Electronic spatial extent (au):  <R**2>=           1828.7106
 Charge=              0.0000 electrons
 Dipole moment (field-independent basis, Debye):
    X=              1.7979    Y=             -0.0477    Z=              0.0002  Tot=              1.7985
 Quadrupole moment (field-independent basis, Debye-Ang):
   XX=            -49.3118   YY=            -57.6423   ZZ=            -69.9618
   XY=              8.5054   XZ=              0.0002   YZ=              0.0000
 Traceless Quadrupole moment (field-independent basis, Debye-Ang):
   XX=              9.6602   YY=              1.3296   ZZ=            -10.9898
   XY=              8.5054   XZ=              0.0002   YZ=              0.0000
 Octapole moment (field-independent basis, Debye-Ang**2):
  XXX=             20.5130  YYY=              6.7058  ZZZ=              0.0003  XYY=              5.4727
  XXY=             -0.1547  XXZ=              0.0012  XZZ=             -8.1506  YZZ=             -0.0097
  YYZ=              0.0010  XYZ=              0.0002
 Hexadecapole moment (field-independent basis, Debye-Ang**3):
 XXXX=          -1497.9532 YYYY=           -513.5047 ZZZZ=            -87.5675 XXXY=             92.0895
 XXXZ=              0.0050 YYYX=             11.5450 YYYZ=              0.0008 ZZZX=              0.0001
 ZZZY=             -0.0002 XXYY=           -355.5866 XXZZ=           -339.0147 YYZZ=           -121.7356
 XXYZ=             -0.0001 YYXZ=              0.0006 ZZXY=              9.5189
 N-N= 5.740257677127D+02 E-N=-2.261665059095D+03  KE= 4.761391932637D+02
                          Isotropic Fermi Contact Couplings
        Atom                 a.u.       MegaHertz       Gauss      10(-4) cm-1
     1  C(13)              0.00000       0.00000       0.00000       0.00000
     2  C(13)              0.00000       0.00000       0.00000       0.00000
     3  C(13)              0.00000       0.00000       0.00000       0.00000
     4  H(1)               0.00000       0.00000       0.00000       0.00000
     5  C(13)              0.00000       0.00000       0.00000       0.00000
     6  C(13)              0.00000       0.00000       0.00000       0.00000
     7  H(1)               0.00000       0.00000       0.00000       0.00000
     8  H(1)               0.00000       0.00000       0.00000       0.00000
     9  C(13)              0.00000       0.00000       0.00000       0.00000
    10  C(13)              0.00000       0.00000       0.00000       0.00000
    11  H(1)               0.00000       0.00000       0.00000       0.00000
    12  C(13)              0.00000       0.00000       0.00000       0.00000
    13  N(14)              0.00000       0.00000       0.00000       0.00000
    14  O(17)              0.00000       0.00000       0.00000       0.00000
    15  H(1)               0.00000       0.00000       0.00000       0.00000
    16  H(1)               0.00000       0.00000       0.00000       0.00000
    17  C(13)              0.00000       0.00000       0.00000       0.00000
    18  H(1)               0.00000       0.00000       0.00000       0.00000
    19  H(1)               0.00000       0.00000       0.00000       0.00000
    20  H(1)               0.00000       0.00000       0.00000       0.00000
 --------------------------------------------------------
       Center         ----  Spin Dipole Couplings  ----
                      3XX-RR        3YY-RR        3ZZ-RR
 --------------------------------------------------------
     1   Atom        0.000000      0.000000      0.000000
     2   Atom        0.000000      0.000000      0.000000
     3   Atom        0.000000      0.000000      0.000000
     4   Atom        0.000000      0.000000      0.000000
     5   Atom        0.000000      0.000000      0.000000
     6   Atom        0.000000      0.000000      0.000000
     7   Atom        0.000000      0.000000      0.000000
     8   Atom        0.000000      0.000000      0.000000
     9   Atom        0.000000      0.000000      0.000000
    10   Atom        0.000000      0.000000      0.000000
    11   Atom        0.000000      0.000000      0.000000
    12   Atom        0.000000      0.000000      0.000000
    13   Atom        0.000000      0.000000      0.000000
    14   Atom        0.000000      0.000000      0.000000
    15   Atom        0.000000      0.000000      0.000000
    16   Atom        0.000000      0.000000      0.000000
    17   Atom        0.000000      0.000000      0.000000
    18   Atom        0.000000      0.000000      0.000000
    19   Atom        0.000000      0.000000      0.000000
    20   Atom        0.000000      0.000000      0.000000
 --------------------------------------------------------
                        XY            XZ            YZ
 --------------------------------------------------------
     1   Atom        0.000000      0.000000      0.000000
     2   Atom        0.000000      0.000000      0.000000
     3   Atom        0.000000      0.000000      0.000000
     4   Atom        0.000000      0.000000      0.000000
     5   Atom        0.000000      0.000000      0.000000
     6   Atom        0.000000      0.000000      0.000000
     7   Atom        0.000000      0.000000      0.000000
     8   Atom        0.000000      0.000000      0.000000
     9   Atom        0.000000      0.000000      0.000000
    10   Atom        0.000000      0.000000      0.000000
    11   Atom        0.000000      0.000000      0.000000
    12   Atom        0.000000      0.000000      0.000000
    13   Atom        0.000000      0.000000      0.000000
    14   Atom        0.000000      0.000000      0.000000
    15   Atom        0.000000      0.000000      0.000000
    16   Atom        0.000000      0.000000      0.000000
    17   Atom        0.000000      0.000000      0.000000
    18   Atom        0.000000      0.000000      0.000000
    19   Atom        0.000000      0.000000      0.000000
    20   Atom        0.000000      0.000000      0.000000
 --------------------------------------------------------


 ---------------------------------------------------------------------------------
              Anisotropic Spin Dipole Couplings in Principal Axis System
 ---------------------------------------------------------------------------------

       Atom             a.u.   MegaHertz   Gauss  10(-4) cm-1        Axes

              Baa     0.0000     0.000     0.000     0.000  1.0000  0.0000  0.0000
     1 C(13)  Bbb     0.0000     0.000     0.000     0.000  0.0000  1.0000  0.0000
              Bcc     0.0000     0.000     0.000     0.000  0.0000  0.0000  1.0000
 
              Baa     0.0000     0.000     0.000     0.000  1.0000  0.0000  0.0000
     2 C(13)  Bbb     0.0000     0.000     0.000     0.000  0.0000  1.0000  0.0000
              Bcc     0.0000     0.000     0.000     0.000  0.0000  0.0000  1.0000
 
              Baa     0.0000     0.000     0.000     0.000  1.0000  0.0000  0.0000
     3 C(13)  Bbb     0.0000     0.000     0.000     0.000  0.0000  1.0000  0.0000
              Bcc     0.0000     0.000     0.000     0.000  0.0000  0.0000  1.0000
 
              Baa     0.0000     0.000     0.000     0.000  1.0000  0.0000  0.0000
     4 H(1)   Bbb     0.0000     0.000     0.000     0.000  0.0000  1.0000  0.0000
              Bcc     0.0000     0.000     0.000     0.000  0.0000  0.0000  1.0000
 
              Baa     0.0000     0.000     0.000     0.000  1.0000  0.0000  0.0000
     5 C(13)  Bbb     0.0000     0.000     0.000     0.000  0.0000  1.0000  0.0000
              Bcc     0.0000     0.000     0.000     0.000  0.0000  0.0000  1.0000
 
              Baa     0.0000     0.000     0.000     0.000  1.0000  0.0000  0.0000
     6 C(13)  Bbb     0.0000     0.000     0.000     0.000  0.0000  1.0000  0.0000
              Bcc     0.0000     0.000     0.000     0.000  0.0000  0.0000  1.0000
 
              Baa     0.0000     0.000     0.000     0.000  1.0000  0.0000  0.0000
     7 H(1)   Bbb     0.0000     0.000     0.000     0.000  0.0000  1.0000  0.0000
              Bcc     0.0000     0.000     0.000     0.000  0.0000  0.0000  1.0000
 
              Baa     0.0000     0.000     0.000     0.000  1.0000  0.0000  0.0000
     8 H(1)   Bbb     0.0000     0.000     0.000     0.000  0.0000  1.0000  0.0000
              Bcc     0.0000     0.000     0.000     0.000  0.0000  0.0000  1.0000
 
              Baa     0.0000     0.000     0.000     0.000  1.0000  0.0000  0.0000
     9 C(13)  Bbb     0.0000     0.000     0.000     0.000  0.0000  1.0000  0.0000
              Bcc     0.0000     0.000     0.000     0.000  0.0000  0.0000  1.0000
 
              Baa     0.0000     0.000     0.000     0.000  1.0000  0.0000  0.0000
    10 C(13)  Bbb     0.0000     0.000     0.000     0.000  0.0000  1.0000  0.0000
              Bcc     0.0000     0.000     0.000     0.000  0.0000  0.0000  1.0000
 
              Baa     0.0000     0.000     0.000     0.000  1.0000  0.0000  0.0000
    11 H(1)   Bbb     0.0000     0.000     0.000     0.000  0.0000  1.0000  0.0000
              Bcc     0.0000     0.000     0.000     0.000  0.0000  0.0000  1.0000
 
              Baa     0.0000     0.000     0.000     0.000  1.0000  0.0000  0.0000
    12 C(13)  Bbb     0.0000     0.000     0.000     0.000  0.0000  1.0000  0.0000
              Bcc     0.0000     0.000     0.000     0.000  0.0000  0.0000  1.0000
 
              Baa     0.0000     0.000     0.000     0.000  1.0000  0.0000  0.0000
    13 N(14)  Bbb     0.0000     0.000     0.000     0.000  0.0000  1.0000  0.0000
              Bcc     0.0000     0.000     0.000     0.000  0.0000  0.0000  1.0000
 
              Baa     0.0000     0.000     0.000     0.000  1.0000  0.0000  0.0000
    14 O(17)  Bbb     0.0000     0.000     0.000     0.000  0.0000  1.0000  0.0000
              Bcc     0.0000     0.000     0.000     0.000  0.0000  0.0000  1.0000
 
              Baa     0.0000     0.000     0.000     0.000  1.0000  0.0000  0.0000
    15 H(1)   Bbb     0.0000     0.000     0.000     0.000  0.0000  1.0000  0.0000
              Bcc     0.0000     0.000     0.000     0.000  0.0000  0.0000  1.0000
 
              Baa     0.0000     0.000     0.000     0.000  1.0000  0.0000  0.0000
    16 H(1)   Bbb     0.0000     0.000     0.000     0.000  0.0000  1.0000  0.0000
              Bcc     0.0000     0.000     0.000     0.000  0.0000  0.0000  1.0000
 
              Baa     0.0000     0.000     0.000     0.000  1.0000  0.0000  0.0000
    17 C(13)  Bbb     0.0000     0.000     0.000     0.000  0.0000  1.0000  0.0000
              Bcc     0.0000     0.000     0.000     0.000  0.0000  0.0000  1.0000
 
              Baa     0.0000     0.000     0.000     0.000  1.0000  0.0000  0.0000
    18 H(1)   Bbb     0.0000     0.000     0.000     0.000  0.0000  1.0000  0.0000
              Bcc     0.0000     0.000     0.000     0.000  0.0000  0.0000  1.0000
 
              Baa     0.0000     0.000     0.000     0.000  1.0000  0.0000  0.0000
    19 H(1)   Bbb     0.0000     0.000     0.000     0.000  0.0000  1.0000  0.0000
              Bcc     0.0000     0.000     0.000     0.000  0.0000  0.0000  1.0000
 
              Baa     0.0000     0.000     0.000     0.000  1.0000  0.0000  0.0000
    20 H(1)   Bbb     0.0000     0.000     0.000     0.000  0.0000  1.0000  0.0000
              Bcc     0.0000     0.000     0.000     0.000  0.0000  0.0000  1.0000
 

 ---------------------------------------------------------------------------------

 Calling FoFJK, ICntrl=      2127 FMM=F ISym2X=0 I1Cent= 0 IOpClX= 1 NMat=1 NMatS=1 NMatT=0.
 ***** Axes restored to original set *****
 -------------------------------------------------------------------
 Center     Atomic                   Forces (Hartrees/Bohr)
 Number     Number              X              Y              Z
 -------------------------------------------------------------------
      1        6           0.026096442    0.028641535   -0.001786448
      2        6          -0.032260500   -0.018644412    0.000978175
      3        6          -0.023799224    0.014027312   -0.001297199
      4        1          -0.002419127    0.001570362   -0.000142420
      5        6           0.019310063    0.035711108   -0.002374408
      6        6          -0.039207457   -0.051945949    0.003325334
      7        1          -0.013857690    0.030489269   -0.002378567
      8        1          -0.001996130    0.000909058   -0.000087088
      9        6          -0.028524414    0.025133901   -0.002147920
     10        6           0.046947999   -0.002327600    0.000703414
     11        1          -0.001866651   -0.002160425    0.000136868
     12        6           0.014044193   -0.005258089    0.000547517
     13        7           0.033086962   -0.026386781    0.002301871
     14        8          -0.013478848   -0.037968537    0.002605660
     15        1           0.002506204   -0.002478316    0.000210702
     16        1          -0.000326585   -0.006175218    0.000445813
     17        6           0.009484916    0.020797743   -0.001411326
     18        1           0.011971473   -0.005373598    0.000527044
     19        1          -0.002764262    0.000164984   -0.007793951
     20        1          -0.002947364    0.001273653    0.007636930
 -------------------------------------------------------------------
 Cartesian Forces:  Max     0.051945949 RMS     0.017750252

 GradGradGradGradGradGradGradGradGradGradGradGradGradGradGradGradGradGrad
 Berny optimization.
 FormGI is forming the generalized inverse of G from B-inverse, IUseBI=4.
 Internal  Forces:  Max     0.049685259 RMS     0.010705084
 Search for a local minimum.
 Step number   1 out of a maximum of  110
 All quantities printed in internal units (Hartrees-Bohrs-Radians)
 Mixed Optimization -- RFO/linear search
 Second derivative matrix not updated -- first step.
 ITU=  0
     Eigenvalues ---    0.01882   0.01943   0.01953   0.01965   0.02015
     Eigenvalues ---    0.02076   0.02101   0.02248   0.02259   0.02288
     Eigenvalues ---    0.02311   0.02333   0.02340   0.02376   0.02389
     Eigenvalues ---    0.10440   0.10632   0.16000   0.16000   0.16000
     Eigenvalues ---    0.16000   0.16000   0.16000   0.16000   0.16000
     Eigenvalues ---    0.16000   0.22189   0.22535   0.23513   0.24127
     Eigenvalues ---    0.24735   0.25000   0.25000   0.32502   0.32505
     Eigenvalues ---    0.32680   0.35674   0.35717   0.35753   0.35754
     Eigenvalues ---    0.35762   0.39503   0.40631   0.40680   0.42980
     Eigenvalues ---    0.43539   0.44843   0.45847   0.46394   0.48946
     Eigenvalues ---    0.49221   0.52898   0.53366   0.54640
 RFO step:  Lambda=-2.89313630D-02 EMin= 1.88220701D-02
 Linear search not attempted -- first point.
 Iteration  1 RMS(Cart)=  0.06093943 RMS(Int)=  0.00125305
 Iteration  2 RMS(Cart)=  0.00247480 RMS(Int)=  0.00020987
 Iteration  3 RMS(Cart)=  0.00000220 RMS(Int)=  0.00020987
 Iteration  4 RMS(Cart)=  0.00000000 RMS(Int)=  0.00020987
 Variable       Old X    -DE/DX   Delta X   Delta X   Delta X     New X
                                 (Linear)    (Quad)   (Total)
    R1        2.68171  -0.02412   0.00000  -0.05541  -0.05535   2.62636
    R2        2.67503  -0.00563   0.00000  -0.01727  -0.01729   2.65774
    R3        2.56613  -0.00946   0.00000  -0.01682  -0.01682   2.54932
    R4        2.04455   0.00109   0.00000   0.00282   0.00282   2.04737
    R5        2.63239   0.00971   0.00000   0.02216   0.02224   2.65463
    R6        2.63068   0.00298   0.00000   0.00827   0.00822   2.63890
    R7        2.04526   0.00189   0.00000   0.00489   0.00489   2.05015
    R8        2.65786  -0.02073   0.00000  -0.04633  -0.04640   2.61146
    R9        2.04595   0.00095   0.00000   0.00248   0.00248   2.04842
   R10        2.62771  -0.01195   0.00000  -0.02929  -0.02979   2.59792
   R11        2.55625   0.02130   0.00000   0.03283   0.03259   2.58884
   R12        2.04469  -0.00081   0.00000  -0.00210  -0.00210   2.04259
   R13        2.58677   0.02934   0.00000   0.06441   0.06489   2.65166
   R14        2.53883   0.03286   0.00000   0.05746   0.05780   2.59663
   R15        1.97340  -0.03357   0.00000  -0.07705  -0.07705   1.89635
   R16        2.60302   0.04969   0.00000   0.09630   0.09623   2.69925
   R17        2.04470  -0.00187   0.00000  -0.00484  -0.00484   2.03986
   R18        2.60660   0.01211   0.00000   0.02323   0.02323   2.62983
   R19        2.09616  -0.01229   0.00000  -0.03456  -0.03456   2.06161
   R20        2.09929  -0.00700   0.00000  -0.01977  -0.01977   2.07952
   R21        2.09935  -0.00702   0.00000  -0.01983  -0.01983   2.07953
    A1        2.08543   0.01162   0.00000   0.03159   0.03173   2.11715
    A2        2.13636   0.00112   0.00000   0.00904   0.00897   2.14533
    A3        2.06140  -0.01274   0.00000  -0.04063  -0.04070   2.02070
    A4        2.13189  -0.00208   0.00000  -0.01259  -0.01270   2.11918
    A5        2.05956   0.00026   0.00000   0.00455   0.00478   2.06434
    A6        2.09174   0.00182   0.00000   0.00804   0.00792   2.09966
    A7        2.11460   0.00237   0.00000   0.01121   0.01123   2.12583
    A8        2.05658  -0.00035   0.00000   0.00081   0.00077   2.05735
    A9        2.11201  -0.00202   0.00000  -0.01202  -0.01200   2.10001
   A10        1.92653  -0.00340   0.00000  -0.03015  -0.03081   1.89573
   A11        2.19162   0.00798   0.00000   0.04834   0.04867   2.24029
   A12        2.16503  -0.00459   0.00000  -0.01819  -0.01786   2.14717
   A13        2.12467  -0.00061   0.00000   0.00489   0.00456   2.12923
   A14        2.22770   0.02045   0.00000   0.05835   0.05793   2.28563
   A15        1.93082  -0.01984   0.00000  -0.06324  -0.06249   1.86833
   A16        2.12852  -0.01347   0.00000  -0.04031  -0.04032   2.08821
   A17        2.28198   0.01592   0.00000   0.04217   0.04187   2.32385
   A18        1.87269  -0.00245   0.00000  -0.00186  -0.00156   1.87113
   A19        1.84118   0.00841   0.00000   0.02870   0.02819   1.86937
   A20        2.21917  -0.00727   0.00000  -0.03055  -0.03030   2.18887
   A21        2.22283  -0.00114   0.00000   0.00186   0.00211   2.22494
   A22        2.11162   0.00254   0.00000  -0.00153  -0.00153   2.11009
   A23        2.09038  -0.00406   0.00000  -0.01399  -0.01399   2.07639
   A24        2.08118   0.00152   0.00000   0.01552   0.01552   2.09670
   A25        1.85355   0.01728   0.00000   0.06656   0.06667   1.92022
   A26        2.21117  -0.00828   0.00000  -0.03138  -0.03144   2.17973
   A27        2.21847  -0.00900   0.00000  -0.03517  -0.03523   2.18324
   A28        2.19350  -0.03507   0.00000  -0.12573  -0.12573   2.06777
   A29        1.90357  -0.00920   0.00000  -0.05043  -0.05015   1.85342
   A30        1.92371   0.00639   0.00000   0.03474   0.03454   1.95824
   A31        1.92377   0.00638   0.00000   0.03467   0.03446   1.95823
   A32        1.89538   0.00049   0.00000   0.00085   0.00112   1.89650
   A33        1.89540   0.00049   0.00000   0.00083   0.00110   1.89651
   A34        1.92145  -0.00480   0.00000  -0.02207  -0.02265   1.89880
    D1        3.14151   0.00000   0.00000   0.00003   0.00002   3.14154
    D2        0.00003   0.00000   0.00000  -0.00001  -0.00001   0.00001
    D3       -0.00005   0.00000   0.00000   0.00001   0.00000  -0.00005
    D4       -3.14154   0.00000   0.00000  -0.00003  -0.00003  -3.14157
    D5        0.00002   0.00000   0.00000  -0.00001  -0.00001   0.00001
    D6       -3.14158   0.00000   0.00000  -0.00001  -0.00001  -3.14159
    D7        3.14159   0.00000   0.00000   0.00001   0.00001  -3.14159
    D8       -0.00001   0.00000   0.00000   0.00001   0.00001   0.00000
    D9        0.00004   0.00000   0.00000   0.00000   0.00000   0.00003
   D10       -3.14153   0.00000   0.00000  -0.00002  -0.00002  -3.14155
   D11       -0.00007   0.00000   0.00000   0.00003   0.00003  -0.00004
   D12       -3.14157   0.00000   0.00000  -0.00001  -0.00001  -3.14158
   D13       -3.14157   0.00000   0.00000   0.00000   0.00000  -3.14157
   D14        0.00012   0.00000   0.00000  -0.00004  -0.00004   0.00008
   D15        3.14153   0.00000   0.00000   0.00002   0.00002   3.14155
   D16       -0.00001   0.00000   0.00000   0.00000   0.00000  -0.00001
   D17       -0.00003   0.00000   0.00000   0.00000   0.00000  -0.00002
   D18       -3.14156   0.00000   0.00000  -0.00002  -0.00002  -3.14159
   D19       -0.00002   0.00000   0.00000   0.00002   0.00002  -0.00001
   D20        3.14158   0.00000   0.00000   0.00001   0.00001   3.14159
   D21       -3.14158   0.00000   0.00000  -0.00001  -0.00001  -3.14158
   D22        0.00003   0.00000   0.00000  -0.00001  -0.00001   0.00002
   D23       -0.00004   0.00000   0.00000   0.00003   0.00003  -0.00001
   D24       -3.14156   0.00000   0.00000   0.00000   0.00000  -3.14156
   D25        3.14157   0.00000   0.00000   0.00002   0.00002   3.14159
   D26        0.00006   0.00000   0.00000  -0.00001  -0.00001   0.00004
   D27        0.00002   0.00000   0.00000  -0.00001  -0.00001   0.00000
   D28        3.14159   0.00000   0.00000  -0.00001  -0.00001   3.14158
   D29        3.14159   0.00000   0.00000   0.00000   0.00000   3.14159
   D30       -0.00002   0.00000   0.00000   0.00000   0.00000  -0.00002
   D31        0.00008   0.00000   0.00000  -0.00003  -0.00003   0.00005
   D32       -3.14159   0.00000   0.00000   0.00001   0.00001  -3.14158
   D33       -3.14156   0.00000   0.00000   0.00000   0.00000  -3.14157
   D34       -0.00004   0.00000   0.00000   0.00003   0.00003  -0.00002
   D35        3.14156   0.00000   0.00000   0.00001   0.00001   3.14157
   D36       -0.00001   0.00000   0.00000   0.00001   0.00001   0.00000
   D37        0.00002   0.00000   0.00000  -0.00001  -0.00001   0.00001
   D38       -3.14155   0.00000   0.00000  -0.00002  -0.00002  -3.14157
   D39        3.14156   0.00000   0.00000   0.00000   0.00000   3.14156
   D40       -0.00011   0.00000   0.00000   0.00003   0.00003  -0.00008
   D41        0.00005   0.00000   0.00000  -0.00003  -0.00003   0.00002
   D42        3.14156   0.00000   0.00000   0.00000   0.00000   3.14156
   D43       -3.14154   0.00000   0.00000  -0.00003  -0.00003  -3.14157
   D44       -1.06222  -0.00121   0.00000  -0.00909  -0.00975  -1.07197
   D45        1.06225   0.00121   0.00000   0.00910   0.00976   1.07202
         Item               Value     Threshold  Converged?
 Maximum Force            0.049685     0.000450     NO 
 RMS     Force            0.010705     0.000300     NO 
 Maximum Displacement     0.217723     0.001800     NO 
 RMS     Displacement     0.062253     0.001200     NO 
 Predicted change in Energy=-1.563063D-02
 GradGradGradGradGradGradGradGradGradGradGradGradGradGradGradGradGradGrad

                          Input orientation:                          
 ---------------------------------------------------------------------
 Center     Atomic      Atomic             Coordinates (Angstroms)
 Number     Number       Type             X           Y           Z
 ---------------------------------------------------------------------
      1          6           0       -3.816053    1.286926   -0.011671
      2          6           0       -2.732450    2.155717   -0.062409
      3          6           0       -2.365650   -0.650939    0.146109
      4          1           0       -4.505567   -0.746472    0.128367
      5          6           0        0.768737    1.154448    0.050844
      6          6           0       -1.275641    0.220469    0.095261
      7          1           0        0.495729   -0.933564    0.199692
      8          1           0       -2.870929    3.227298   -0.142047
      9          6           0       -1.439036    1.610304   -0.007816
     10          6           0       -0.133172    2.188460   -0.034831
     11          1           0       -2.235653   -1.725066    0.225776
     12          6           0       -3.633457   -0.103753    0.091651
     13          7           0        0.075944   -0.024851    0.128708
     14          8           0       -5.096652    1.708716   -0.057144
     15          1           0        0.120347    3.235149   -0.108136
     16          1           0        1.848406    1.205067    0.059614
     17          6           0       -5.342051    3.074728   -0.159445
     18          1           0       -6.426886    3.188240   -0.180191
     19          1           0       -4.945898    3.633947    0.701542
     20          1           0       -4.925366    3.503975   -1.083072
 ---------------------------------------------------------------------
                    Distance matrix (angstroms):
                    1          2          3          4          5
     1  C    0.000000
     2  C    1.389808   0.000000
     3  C    2.425671   2.838193   0.000000
     4  H    2.151685   3.406324   2.142122   0.000000
     5  C    4.587129   3.643305   3.618408   5.606941   0.000000
     6  C    2.757255   2.427414   1.396444   3.371719   2.248059
     7  H    4.854556   4.475879   2.875803   5.005303   2.111039
     8  H    2.162244   1.083423   3.921614   4.305347   4.192980
     9  C    2.398916   1.404769   2.448576   3.869955   2.255106
    10  C    3.791690   2.599631   3.616474   5.268615   1.374758
    11  H    3.409712   3.923051   1.084894   2.473791   4.165160
    12  C    1.406415   2.437366   1.381923   1.083979   4.578651
    13  N    4.109514   3.560685   2.520649   4.637993   1.369953
    14  O    1.349041   2.406094   3.614921   2.532142   5.892509
    15  H    4.393190   3.050527   4.620227   6.108054   2.185177
    16  H    5.665498   4.680050   4.605487   6.647270   1.080891
    17  C    2.355153   2.768395   4.778380   3.922259   6.408855
    18  H    3.234168   3.837816   5.598160   4.389605   7.481087
    19  H    2.700691   2.769140   5.032537   4.439650   6.263256
    20  H    2.700701   2.769194   5.032528   4.439608   6.263294
                    6          7          8          9         10
     6  C    0.000000
     7  H    2.116708   0.000000
     8  H    3.412078   5.363203   0.000000
     9  C    1.403198   3.202755   2.164026   0.000000
    10  C    2.279287   3.193361   2.930187   1.428382   0.000000
    11  H    2.173422   2.843871   5.006473   3.437128   4.450171
    12  C    2.380006   4.213127   3.425196   2.786282   4.185957
    13  N    1.374075   1.003503   4.397026   2.233279   2.229174
    14  O    4.103442   6.190504   2.695764   3.659273   4.986661
    15  H    3.328430   4.196884   2.991478   2.254298   1.079446
    16  H    3.275725   2.534384   5.138308   3.313010   2.214188
    17  C    4.974671   7.090491   2.475888   4.171457   5.285207
    18  H    5.951375   8.065741   3.556376   5.234333   6.374286
    19  H    5.048781   7.122171   2.276511   4.110523   5.078781
    20  H    5.048799   7.122184   2.276574   4.110555   5.078830
                   11         12         13         14         15
    11  H    0.000000
    12  C    2.144878   0.000000
    13  N    2.871173   3.710425   0.000000
    14  O    4.478417   2.334122   5.458530   0.000000
    15  H    5.501450   5.027845   3.268893   5.435962   0.000000
    16  H    5.029197   5.636032   2.158493   6.964275   2.671247
    17  C    5.730281   3.617331   6.248607   1.391645   5.464993
    18  H    6.470843   4.326010   7.259901   1.993402   6.547797
    19  H    6.024184   4.008100   6.239698   2.074812   5.146014
    20  H    6.024160   4.008080   6.239721   2.074807   5.146065
                   16         17         18         19         20
    16  H    0.000000
    17  C    7.432784   0.000000
    18  H    8.512986   1.090955   0.000000
    19  H    7.243900   1.100437   1.780289   0.000000
    20  H    7.243942   1.100439   1.780294   1.789458   0.000000
 Stoichiometry    C9H9NO
 Framework group  C1[X(C9H9NO)]
 Deg. of freedom    54
 Full point group                 C1      NOp   1
 Largest Abelian subgroup         C1      NOp   1
 Largest concise Abelian subgroup C1      NOp   1
                         Standard orientation:                         
 ---------------------------------------------------------------------
 Center     Atomic      Atomic             Coordinates (Angstroms)
 Number     Number       Type             X           Y           Z
 ---------------------------------------------------------------------
      1          6           0       -1.430981    0.319301   -0.000013
      2          6           0       -0.628802   -0.815634   -0.000021
      3          6           0        0.498784    1.788956    0.000007
      4          1           0       -1.532667    2.468582    0.000020
      5          6           0        3.014502   -0.811821    0.000001
      6          6           0        1.306402    0.649742   -0.000007
      7          1           0        3.328423    1.275747    0.000004
      8          1           0       -1.057810   -1.810498    0.000013
      9          6           0        0.765571   -0.645042    0.000010
     10          6           0        1.861724   -1.560861    0.000000
     11          1           0        0.920337    2.788600    0.000032
     12          6           0       -0.871454    1.609624    0.000008
     13          7           0        2.673865    0.515107   -0.000005
     14          8           0       -2.778902    0.264348   -0.000016
     15          1           0        1.816547   -2.639361    0.000034
     16          1           0        4.038778   -1.157049    0.000000
     17          6           0       -3.392014   -0.984959    0.000013
     18          1           0       -4.466570   -0.796514   -0.000018
     19          1           0       -3.137617   -1.572969   -0.894686
     20          1           0       -3.137652   -1.572899    0.894772
 ---------------------------------------------------------------------
 Rotational constants (GHZ):      2.8603092      0.7678124      0.6076707
 Standard basis: 6-311++G(d,p) (5D, 7F)
 There are   316 symmetry adapted cartesian basis functions of A   symmetry.
 There are   305 symmetry adapted basis functions of A   symmetry.
   305 basis functions,   477 primitive gaussians,   316 cartesian basis functions
    39 alpha electrons       39 beta electrons
       nuclear repulsion energy       573.9749003272 Hartrees.
 NAtoms=   20 NActive=   20 NUniq=   20 SFac= 1.00D+00 NAtFMM=   60 NAOKFM=F Big=F
 Integral buffers will be    131072 words long.
 Raffenetti 2 integral format.
 Two-electron integral symmetry is turned on.
 One-electron integrals computed using PRISM.
 NBasis=   305 RedAO= T EigKep=  2.70D-06  NBF=   305
 NBsUse=   302 1.00D-06 EigRej=  9.94D-07 NBFU=   302
 Initial guess from the checkpoint file:  "opt_203.chk"
 B after Tr=     0.000000    0.000000    0.000000
         Rot=    0.999958    0.000000    0.000000   -0.009200 Ang=   1.05 deg.
 Initial guess <Sx>= 0.0000 <Sy>= 0.0000 <Sz>= 0.0000 <S**2>= 0.0000 S= 0.0000
 ExpMin= 3.60D-02 ExpMax= 8.59D+03 ExpMxC= 1.30D+03 IAcc=3 IRadAn=         5 AccDes= 0.00D+00
 Harris functional with IExCor= 1009 and IRadAn=       5 diagonalized for initial guess.
 HarFok:  IExCor= 1009 AccDes= 0.00D+00 IRadAn=         5 IDoV= 1 UseB2=F ITyADJ=14
 ICtDFT=  3500011 ScaDFX=  1.000000  1.000000  1.000000  1.000000
 FoFCou: FMM=F IPFlag=           0 FMFlag=      100000 FMFlg1=           0
         NFxFlg=           0 DoJE=T BraDBF=F KetDBF=T FulRan=T
         wScrn=  0.000000 ICntrl=     500 IOpCl=  0 I1Cent=   200000004 NGrid=           0
         NMat0=    1 NMatS0=      1 NMatT0=    0 NMatD0=    1 NMtDS0=    0 NMtDT0=    0
 Petite list used in FoFCou.
 Keep R1 and R2 ints in memory in canonical form, NReq=2193923028.
 Requested convergence on RMS density matrix=1.00D-08 within 128 cycles.
 Requested convergence on MAX density matrix=1.00D-06.
 Requested convergence on             energy=1.00D-06.
 No special actions if energy rises.
 SCF Done:  E(UPBE1PBE) =  -477.907350997     A.U. after   13 cycles
            NFock= 13  Conv=0.23D-08     -V/T= 2.0038
 <Sx>= 0.0000 <Sy>= 0.0000 <Sz>= 0.0000 <S**2>= 0.0000 S= 0.0000
 <L.S>= 0.000000000000E+00
 Annihilation of the first spin contaminant:
 S**2 before annihilation     0.0000,   after     0.0000
 Calling FoFJK, ICntrl=      2127 FMM=F ISym2X=0 I1Cent= 0 IOpClX= 1 NMat=1 NMatS=1 NMatT=0.
 ***** Axes restored to original set *****
 -------------------------------------------------------------------
 Center     Atomic                   Forces (Hartrees/Bohr)
 Number     Number              X              Y              Z
 -------------------------------------------------------------------
      1        6           0.011048602    0.007626846   -0.000428022
      2        6          -0.001982103   -0.004534882    0.000302239
      3        6          -0.000867090    0.002198840   -0.000170545
      4        1          -0.000962446    0.001310817   -0.000106687
      5        6          -0.008924072    0.009053045   -0.000761552
      6        6           0.001074559   -0.004470466    0.000335261
      7        1           0.000395174   -0.001061599    0.000082066
      8        1           0.000642092   -0.000682709    0.000058679
      9        6          -0.002336491    0.008165825   -0.000615669
     10        6           0.005082994   -0.003060299    0.000278114
     11        1           0.000275360   -0.000210157    0.000019214
     12        6           0.003950959   -0.004354570    0.000363760
     13        7           0.005962395   -0.006146802    0.000516576
     14        8          -0.009518374   -0.007959058    0.000470480
     15        1          -0.000432612    0.000395039   -0.000032443
     16        1          -0.000864485   -0.003806532    0.000266951
     17        6          -0.002874195    0.009877016   -0.000753680
     18        1           0.000307897    0.000188010   -0.000010409
     19        1           0.000024173   -0.001346679   -0.001037911
     20        1          -0.000002338   -0.001181685    0.001223578
 -------------------------------------------------------------------
 Cartesian Forces:  Max     0.011048602 RMS     0.003867007

 GradGradGradGradGradGradGradGradGradGradGradGradGradGradGradGradGradGrad
 Berny optimization.
 Using GEDIIS/GDIIS optimizer.
 FormGI is forming the generalized inverse of G from B-inverse, IUseBI=4.
 Internal  Forces:  Max     0.011319803 RMS     0.002186726
 Search for a local minimum.
 Step number   2 out of a maximum of  110
 All quantities printed in internal units (Hartrees-Bohrs-Radians)
 Mixed Optimization -- RFO/linear search
 Update second derivatives using D2CorX and points    1    2
 DE= -1.47D-02 DEPred=-1.56D-02 R= 9.39D-01
 TightC=F SS=  1.41D+00  RLast= 2.85D-01 DXNew= 5.0454D-01 8.5615D-01
 Trust test= 9.39D-01 RLast= 2.85D-01 DXMaxT set to 5.05D-01
 ITU=  1  0
 Use linear search instead of GDIIS.
     Eigenvalues ---    0.01881   0.01944   0.01949   0.01965   0.02018
     Eigenvalues ---    0.02074   0.02102   0.02248   0.02257   0.02286
     Eigenvalues ---    0.02312   0.02332   0.02338   0.02374   0.02389
     Eigenvalues ---    0.10143   0.10777   0.15628   0.16000   0.16000
     Eigenvalues ---    0.16000   0.16000   0.16000   0.16000   0.16000
     Eigenvalues ---    0.16238   0.22336   0.23024   0.23387   0.23998
     Eigenvalues ---    0.24533   0.24722   0.27143   0.32364   0.32503
     Eigenvalues ---    0.32735   0.35674   0.35707   0.35737   0.35756
     Eigenvalues ---    0.35766   0.38165   0.40673   0.40883   0.42669
     Eigenvalues ---    0.43559   0.44727   0.45855   0.46399   0.48742
     Eigenvalues ---    0.49152   0.51893   0.54414   0.57471
 RFO step:  Lambda=-1.49668572D-03 EMin= 1.88082323D-02
 Quartic linear search produced a step of  0.00922.
 Iteration  1 RMS(Cart)=  0.02075124 RMS(Int)=  0.00012106
 Iteration  2 RMS(Cart)=  0.00022448 RMS(Int)=  0.00000960
 Iteration  3 RMS(Cart)=  0.00000002 RMS(Int)=  0.00000960
 Variable       Old X    -DE/DX   Delta X   Delta X   Delta X     New X
                                 (Linear)    (Quad)   (Total)
    R1        2.62636  -0.00275  -0.00051  -0.00920  -0.00971   2.61665
    R2        2.65774   0.00309  -0.00016   0.00571   0.00555   2.66329
    R3        2.54932   0.01132  -0.00015   0.02061   0.02045   2.56977
    R4        2.04737  -0.00076   0.00003  -0.00202  -0.00199   2.04538
    R5        2.65463   0.00077   0.00020   0.00303   0.00324   2.65787
    R6        2.63890  -0.00220   0.00008  -0.00407  -0.00399   2.63490
    R7        2.05015   0.00024   0.00005   0.00089   0.00094   2.05109
    R8        2.61146  -0.00176  -0.00043  -0.00643  -0.00685   2.60460
    R9        2.04842  -0.00001   0.00002   0.00009   0.00011   2.04854
   R10        2.59792  -0.00356  -0.00027  -0.01033  -0.01060   2.58732
   R11        2.58884   0.00035   0.00030   0.00136   0.00168   2.59051
   R12        2.04259  -0.00104  -0.00002  -0.00301  -0.00303   2.03956
   R13        2.65166   0.00621   0.00060   0.01694   0.01752   2.66918
   R14        2.59663   0.00100   0.00053   0.00508   0.00562   2.60224
   R15        1.89635   0.00113  -0.00071  -0.00055  -0.00126   1.89509
   R16        2.69925   0.00021   0.00089   0.00456   0.00543   2.70468
   R17        2.03986   0.00028  -0.00004   0.00058   0.00054   2.04039
   R18        2.62983   0.00790   0.00021   0.01715   0.01737   2.64719
   R19        2.06161  -0.00029  -0.00032  -0.00238  -0.00270   2.05891
   R20        2.07952  -0.00149  -0.00018  -0.00545  -0.00563   2.07390
   R21        2.07953  -0.00149  -0.00018  -0.00545  -0.00564   2.07389
    A1        2.11715  -0.00164   0.00029  -0.00662  -0.00632   2.11083
    A2        2.14533   0.00645   0.00008   0.02697   0.02705   2.17238
    A3        2.02070  -0.00481  -0.00038  -0.02035  -0.02073   1.99997
    A4        2.11918   0.00021  -0.00012   0.00103   0.00091   2.12010
    A5        2.06434   0.00070   0.00004   0.00412   0.00416   2.06850
    A6        2.09966  -0.00091   0.00007  -0.00515  -0.00507   2.09459
    A7        2.12583  -0.00032   0.00010  -0.00147  -0.00137   2.12446
    A8        2.05735   0.00015   0.00001   0.00078   0.00078   2.05813
    A9        2.10001   0.00018  -0.00011   0.00070   0.00059   2.10060
   A10        1.89573   0.00525  -0.00028   0.01877   0.01851   1.91424
   A11        2.24029   0.00123   0.00045   0.01610   0.01654   2.25683
   A12        2.14717  -0.00648  -0.00016  -0.03487  -0.03505   2.11212
   A13        2.12923  -0.00153   0.00004  -0.00612  -0.00608   2.12315
   A14        2.28563  -0.00018   0.00053  -0.00160  -0.00106   2.28457
   A15        1.86833   0.00171  -0.00058   0.00772   0.00714   1.87547
   A16        2.08821   0.00006  -0.00037  -0.00049  -0.00085   2.08735
   A17        2.32385   0.00208   0.00039   0.00750   0.00790   2.33175
   A18        1.87113  -0.00215  -0.00001  -0.00701  -0.00705   1.86408
   A19        1.86937  -0.00044   0.00026  -0.00323  -0.00298   1.86639
   A20        2.18887   0.00074  -0.00028   0.00419   0.00392   2.19279
   A21        2.22494  -0.00030   0.00002  -0.00097  -0.00094   2.22400
   A22        2.11009   0.00226  -0.00001   0.00833   0.00832   2.11841
   A23        2.07639  -0.00280  -0.00013  -0.01523  -0.01536   2.06103
   A24        2.09670   0.00054   0.00014   0.00690   0.00704   2.10374
   A25        1.92022  -0.00437   0.00061  -0.01626  -0.01562   1.90460
   A26        2.17973   0.00227  -0.00029   0.00874   0.00844   2.18816
   A27        2.18324   0.00210  -0.00032   0.00752   0.00719   2.19042
   A28        2.06777   0.00063  -0.00116  -0.00285  -0.00401   2.06376
   A29        1.85342   0.00096  -0.00046   0.00526   0.00480   1.85822
   A30        1.95824  -0.00110   0.00032  -0.00617  -0.00588   1.95236
   A31        1.95823  -0.00110   0.00032  -0.00617  -0.00587   1.95236
   A32        1.89650   0.00049   0.00001   0.00442   0.00444   1.90094
   A33        1.89651   0.00049   0.00001   0.00442   0.00444   1.90094
   A34        1.89880   0.00038  -0.00021  -0.00092  -0.00117   1.89763
    D1        3.14154   0.00000   0.00000   0.00004   0.00004   3.14158
    D2        0.00001   0.00000   0.00000  -0.00002  -0.00002   0.00000
    D3       -0.00005   0.00000   0.00000   0.00002   0.00002  -0.00002
    D4       -3.14157   0.00000   0.00000  -0.00003  -0.00003   3.14158
    D5        0.00001   0.00000   0.00000  -0.00001  -0.00001   0.00000
    D6       -3.14159   0.00000   0.00000   0.00000   0.00000  -3.14159
    D7       -3.14159   0.00000   0.00000   0.00001   0.00001  -3.14158
    D8        0.00000   0.00000   0.00000   0.00001   0.00001   0.00001
    D9        0.00003   0.00000   0.00000  -0.00002  -0.00002   0.00002
   D10       -3.14155   0.00000   0.00000  -0.00003  -0.00003  -3.14158
   D11       -0.00004   0.00000   0.00000   0.00004   0.00004  -0.00001
   D12       -3.14158   0.00000   0.00000   0.00000   0.00000  -3.14158
   D13       -3.14157   0.00000   0.00000  -0.00002  -0.00002  -3.14159
   D14        0.00008   0.00000   0.00000  -0.00005  -0.00005   0.00002
   D15        3.14155   0.00000   0.00000   0.00003   0.00003   3.14158
   D16       -0.00001   0.00000   0.00000   0.00000   0.00000  -0.00001
   D17       -0.00002   0.00000   0.00000   0.00001   0.00001  -0.00002
   D18       -3.14159   0.00000   0.00000  -0.00002  -0.00002   3.14158
   D19       -0.00001   0.00000   0.00000   0.00001   0.00001   0.00001
   D20        3.14159   0.00000   0.00000   0.00001   0.00001  -3.14159
   D21       -3.14158   0.00000   0.00000  -0.00001  -0.00001   3.14159
   D22        0.00002   0.00000   0.00000  -0.00002  -0.00002   0.00000
   D23       -0.00001   0.00000   0.00000   0.00001   0.00001   0.00000
   D24       -3.14156   0.00000   0.00000  -0.00002  -0.00002  -3.14158
   D25        3.14159   0.00000   0.00000   0.00001   0.00001  -3.14159
   D26        0.00004   0.00000   0.00000  -0.00002  -0.00002   0.00002
   D27        0.00000   0.00000   0.00000   0.00000   0.00000   0.00000
   D28        3.14158   0.00000   0.00000   0.00000   0.00000   3.14159
   D29        3.14159   0.00000   0.00000   0.00000   0.00000   3.14159
   D30       -0.00002   0.00000   0.00000   0.00000   0.00000  -0.00001
   D31        0.00005   0.00000   0.00000  -0.00003  -0.00003   0.00002
   D32       -3.14158   0.00000   0.00000  -0.00001  -0.00001  -3.14159
   D33       -3.14157   0.00000   0.00000  -0.00001  -0.00001  -3.14158
   D34       -0.00002   0.00000   0.00000   0.00002   0.00002   0.00000
   D35        3.14157   0.00000   0.00000   0.00001   0.00001   3.14159
   D36        0.00000   0.00000   0.00000   0.00001   0.00001   0.00001
   D37        0.00001   0.00000   0.00000  -0.00001  -0.00001   0.00000
   D38       -3.14157   0.00000   0.00000  -0.00002  -0.00002  -3.14158
   D39        3.14156   0.00000   0.00000   0.00002   0.00002   3.14158
   D40       -0.00008   0.00000   0.00000   0.00004   0.00004  -0.00004
   D41        0.00002   0.00000   0.00000  -0.00002  -0.00002   0.00000
   D42        3.14156   0.00000   0.00000   0.00001   0.00001   3.14157
   D43       -3.14157   0.00000   0.00000  -0.00002  -0.00002  -3.14159
   D44       -1.07197   0.00058  -0.00009   0.00521   0.00509  -1.06688
   D45        1.07202  -0.00058   0.00009  -0.00525  -0.00512   1.06690
         Item               Value     Threshold  Converged?
 Maximum Force            0.011320     0.000450     NO 
 RMS     Force            0.002187     0.000300     NO 
 Maximum Displacement     0.073482     0.001800     NO 
 RMS     Displacement     0.020756     0.001200     NO 
 Predicted change in Energy=-7.540136D-04
 GradGradGradGradGradGradGradGradGradGradGradGradGradGradGradGradGradGrad

                          Input orientation:                          
 ---------------------------------------------------------------------
 Center     Atomic      Atomic             Coordinates (Angstroms)
 Number     Number       Type             X           Y           Z
 ---------------------------------------------------------------------
      1          6           0       -3.805551    1.305515   -0.012926
      2          6           0       -2.721713    2.165801   -0.063055
      3          6           0       -2.359930   -0.642250    0.145536
      4          1           0       -4.501643   -0.718378    0.126377
      5          6           0        0.772475    1.146610    0.051462
      6          6           0       -1.264907    0.219476    0.095443
      7          1           0        0.505474   -0.946936    0.200794
      8          1           0       -2.853805    3.237131   -0.142581
      9          6           0       -1.427134    1.618757   -0.008302
     10          6           0       -0.113675    2.186764   -0.034493
     11          1           0       -2.236680   -1.717670    0.225243
     12          6           0       -3.620596   -0.087806    0.090635
     13          7           0        0.087385   -0.038175    0.129813
     14          8           0       -5.105571    1.702066   -0.056773
     15          1           0        0.147997    3.231755   -0.107568
     16          1           0        1.851515    1.166851    0.062447
     17          6           0       -5.377554    3.072385   -0.159675
     18          1           0       -6.462403    3.171323   -0.179368
     19          1           0       -4.984733    3.632556    0.698413
     20          1           0       -4.964251    3.503023   -1.080621
 ---------------------------------------------------------------------
                    Distance matrix (angstroms):
                    1          2          3          4          5
     1  C    0.000000
     2  C    1.384669   0.000000
     3  C    2.430786   2.838934   0.000000
     4  H    2.144782   3.394483   2.143151   0.000000
     5  C    4.581236   3.641595   3.608439   5.594650   0.000000
     6  C    2.765158   2.436306   1.394330   3.370013   2.238847
     7  H    4.868691   4.491490   2.882087   5.012883   2.115780
     8  H    2.157260   1.082369   3.921291   4.293455   4.190208
     9  C    2.398961   1.406482   2.450699   3.864316   2.250505
    10  C    3.795657   2.608279   3.616821   5.264978   1.369150
    11  H    3.414342   3.924248   1.085391   2.477583   4.158042
    12  C    1.409354   2.431122   1.378297   1.084039   4.563375
    13  N    4.120781   3.575715   2.520814   4.639167   1.370840
    14  O    1.359863   2.428553   3.615978   2.501364   5.905224
    15  H    4.398852   3.061613   4.621869   6.105524   2.182451
    16  H    5.659268   4.682742   4.584323   6.627277   1.079286
    17  C    2.369506   2.807975   4.795595   3.901145   6.447949
    18  H    3.250815   3.875224   5.610632   4.366673   7.516395
    19  H    2.703996   2.802225   5.046705   4.414887   6.304278
    20  H    2.703997   2.802245   5.046706   4.414869   6.304309
                    6          7          8          9         10
     6  C    0.000000
     7  H    2.122702   0.000000
     8  H    3.418698   5.376717   0.000000
     9  C    1.412468   3.218924   2.161610   0.000000
    10  C    2.283077   3.202934   2.936540   1.431255   0.000000
    11  H    2.171112   2.848515   5.006616   3.441170   4.451878
    12  C    2.375652   4.216005   3.420171   2.780903   4.181844
    13  N    1.377047   1.002838   4.410491   2.249059   2.240039
    14  O    4.119702   6.210265   2.726580   3.679700   5.015422
    15  H    3.333366   4.205275   3.002011   2.256691   1.079730
    16  H    3.257406   2.509793   5.144720   3.310403   2.216212
    17  C    5.011791   7.134067   2.529178   4.212098   5.339327
    18  H    5.983551   8.102832   3.609385   5.271969   6.426249
    19  H    5.084269   7.166711   2.324755   4.148656   5.133680
    20  H    5.084285   7.166732   2.324779   4.148677   5.133712
                   11         12         13         14         15
    11  H    0.000000
    12  C    2.142382   0.000000
    13  N    2.868988   3.708521   0.000000
    14  O    4.472658   2.330348   5.479968   0.000000
    15  H    5.504022   5.026039   3.279095   5.471975   0.000000
    16  H    5.006027   5.614175   2.137470   6.978662   2.682296
    17  C    5.740896   3.624413   6.294835   1.400834   5.528095
    18  H    6.474775   4.332516   7.300424   2.003681   6.611066
    19  H    6.033292   4.008910   6.286808   2.076463   5.211062
    20  H    6.033288   4.008903   6.286832   2.076459   5.211093
                   16         17         18         19         20
    16  H    0.000000
    17  C    7.479295   0.000000
    18  H    8.555561   1.089528   0.000000
    19  H    7.295098   1.097458   1.779534   0.000000
    20  H    7.295134   1.097457   1.779534   1.783861   0.000000
 Stoichiometry    C9H9NO
 Framework group  C1[X(C9H9NO)]
 Deg. of freedom    54
 Full point group                 C1      NOp   1
 Largest Abelian subgroup         C1      NOp   1
 Largest concise Abelian subgroup C1      NOp   1
                         Standard orientation:                         
 ---------------------------------------------------------------------
 Center     Atomic      Atomic             Coordinates (Angstroms)
 Number     Number       Type             X           Y           Z
 ---------------------------------------------------------------------
      1          6           0       -1.428525    0.302010    0.000003
      2          6           0       -0.624678   -0.825438    0.000008
      3          6           0        0.500566    1.780972    0.000009
      4          1           0       -1.537437    2.444026    0.000005
      5          6           0        3.016861   -0.805356   -0.000008
      6          6           0        1.314768    0.649056    0.000002
      7          1           0        3.339769    1.285638   -0.000016
      8          1           0       -1.048276   -1.821473    0.000020
      9          6           0        0.771403   -0.654716    0.000012
     10          6           0        1.876930   -1.563727    0.000004
     11          1           0        0.916795    2.783382    0.000011
     12          6           0       -0.864960    1.593781    0.000006
     13          7           0        2.686217    0.525012   -0.000013
     14          8           0       -2.788173    0.277812   -0.000014
     15          1           0        1.839196   -2.642798    0.000025
     16          1           0        4.048666   -1.121959   -0.000020
     17          6           0       -3.429041   -0.967831   -0.000005
     18          1           0       -4.499423   -0.764475   -0.000028
     19          1           0       -3.178669   -1.556231   -0.891921
     20          1           0       -3.178700   -1.556197    0.891940
 ---------------------------------------------------------------------
 Rotational constants (GHZ):      2.8800971      0.7599845      0.6036165
 Standard basis: 6-311++G(d,p) (5D, 7F)
 There are   316 symmetry adapted cartesian basis functions of A   symmetry.
 There are   305 symmetry adapted basis functions of A   symmetry.
   305 basis functions,   477 primitive gaussians,   316 cartesian basis functions
    39 alpha electrons       39 beta electrons
       nuclear repulsion energy       572.8514511284 Hartrees.
 NAtoms=   20 NActive=   20 NUniq=   20 SFac= 1.00D+00 NAtFMM=   60 NAOKFM=F Big=F
 Integral buffers will be    131072 words long.
 Raffenetti 2 integral format.
 Two-electron integral symmetry is turned on.
 One-electron integrals computed using PRISM.
 NBasis=   305 RedAO= T EigKep=  1.01D-06  NBF=   305
 NBsUse=   303 1.00D-06 EigRej=  8.30D-07 NBFU=   303
 Initial guess from the checkpoint file:  "opt_203.chk"
 B after Tr=     0.000000    0.000000    0.000000
         Rot=    1.000000    0.000000    0.000000    0.000472 Ang=  -0.05 deg.
 Initial guess <Sx>= 0.0000 <Sy>= 0.0000 <Sz>= 0.0000 <S**2>= 0.0000 S= 0.0000
 ExpMin= 3.60D-02 ExpMax= 8.59D+03 ExpMxC= 1.30D+03 IAcc=3 IRadAn=         5 AccDes= 0.00D+00
 Harris functional with IExCor= 1009 and IRadAn=       5 diagonalized for initial guess.
 HarFok:  IExCor= 1009 AccDes= 0.00D+00 IRadAn=         5 IDoV= 1 UseB2=F ITyADJ=14
 ICtDFT=  3500011 ScaDFX=  1.000000  1.000000  1.000000  1.000000
 FoFCou: FMM=F IPFlag=           0 FMFlag=      100000 FMFlg1=           0
         NFxFlg=           0 DoJE=T BraDBF=F KetDBF=T FulRan=T
         wScrn=  0.000000 ICntrl=     500 IOpCl=  0 I1Cent=   200000004 NGrid=           0
         NMat0=    1 NMatS0=      1 NMatT0=    0 NMatD0=    1 NMtDS0=    0 NMtDT0=    0
 Petite list used in FoFCou.
 Keep R1 and R2 ints in memory in canonical form, NReq=2193923028.
 Requested convergence on RMS density matrix=1.00D-08 within 128 cycles.
 Requested convergence on MAX density matrix=1.00D-06.
 Requested convergence on             energy=1.00D-06.
 No special actions if energy rises.
 SCF Done:  E(UPBE1PBE) =  -477.908148188     A.U. after   13 cycles
            NFock= 13  Conv=0.79D-08     -V/T= 2.0039
 <Sx>= 0.0000 <Sy>= 0.0000 <Sz>= 0.0000 <S**2>= 0.0000 S= 0.0000
 <L.S>= 0.000000000000E+00
 Annihilation of the first spin contaminant:
 S**2 before annihilation     0.0000,   after     0.0000
 Calling FoFJK, ICntrl=      2127 FMM=F ISym2X=0 I1Cent= 0 IOpClX= 1 NMat=1 NMatS=1 NMatT=0.
 ***** Axes restored to original set *****
 -------------------------------------------------------------------
 Center     Atomic                   Forces (Hartrees/Bohr)
 Number     Number              X              Y              Z
 -------------------------------------------------------------------
      1        6           0.002253580    0.000600877   -0.000017008
      2        6          -0.000225957   -0.000599347    0.000039710
      3        6           0.000217767   -0.000099867    0.000010466
      4        1          -0.000412392    0.000446783   -0.000037329
      5        6          -0.000725220    0.002009264   -0.000154314
      6        6           0.000884571    0.000860360   -0.000052709
      7        1           0.000645228   -0.001203166    0.000095085
      8        1           0.000166790    0.000644643   -0.000044513
      9        6           0.000217839   -0.000177051    0.000016486
     10        6          -0.000308959   -0.001720397    0.000120485
     11        1           0.000130160   -0.000008019    0.000002169
     12        6          -0.000211014   -0.001581235    0.000112432
     13        7          -0.001661268    0.001693911   -0.000142924
     14        8          -0.001963069   -0.002443307    0.000155010
     15        1          -0.000176331    0.000027128   -0.000003291
     16        1           0.000555071   -0.000801673    0.000064557
     17        6           0.000521880    0.003494285   -0.000247921
     18        1          -0.000391789   -0.000394678    0.000024169
     19        1           0.000237370   -0.000349066    0.000381114
     20        1           0.000245742   -0.000399443   -0.000321673
 -------------------------------------------------------------------
 Cartesian Forces:  Max     0.003494285 RMS     0.000916685

 GradGradGradGradGradGradGradGradGradGradGradGradGradGradGradGradGradGrad
 Berny optimization.
 Using GEDIIS/GDIIS optimizer.
 FormGI is forming the generalized inverse of G from B-inverse, IUseBI=4.
 Internal  Forces:  Max     0.002975879 RMS     0.000559888
 Search for a local minimum.
 Step number   3 out of a maximum of  110
 All quantities printed in internal units (Hartrees-Bohrs-Radians)
 Mixed Optimization -- En-DIIS/RFO-DIIS
 Update second derivatives using D2CorX and points    1    2    3
 DE= -7.97D-04 DEPred=-7.54D-04 R= 1.06D+00
 TightC=F SS=  1.41D+00  RLast= 7.57D-02 DXNew= 8.4853D-01 2.2710D-01
 Trust test= 1.06D+00 RLast= 7.57D-02 DXMaxT set to 5.05D-01
 ITU=  1  1  0
 Use linear search instead of GDIIS.
     Eigenvalues ---    0.01881   0.01945   0.01949   0.01965   0.02017
     Eigenvalues ---    0.02074   0.02102   0.02248   0.02255   0.02285
     Eigenvalues ---    0.02312   0.02332   0.02337   0.02374   0.02388
     Eigenvalues ---    0.10195   0.10763   0.13692   0.16000   0.16000
     Eigenvalues ---    0.16000   0.16000   0.16000   0.16000   0.16087
     Eigenvalues ---    0.16231   0.22159   0.22703   0.23369   0.23582
     Eigenvalues ---    0.24679   0.24770   0.30472   0.32503   0.32676
     Eigenvalues ---    0.32743   0.35671   0.35708   0.35751   0.35755
     Eigenvalues ---    0.35974   0.38248   0.40744   0.41629   0.42174
     Eigenvalues ---    0.43610   0.44955   0.45981   0.46345   0.47655
     Eigenvalues ---    0.49561   0.52733   0.54598   0.56340
 RFO step:  Lambda=-1.12075431D-04 EMin= 1.88091648D-02
 Quartic linear search produced a step of  0.02552.
 Iteration  1 RMS(Cart)=  0.00881220 RMS(Int)=  0.00003878
 Iteration  2 RMS(Cart)=  0.00006010 RMS(Int)=  0.00000166
 Iteration  3 RMS(Cart)=  0.00000000 RMS(Int)=  0.00000166
 Variable       Old X    -DE/DX   Delta X   Delta X   Delta X     New X
                                 (Linear)    (Quad)   (Total)
    R1        2.61665  -0.00050  -0.00025  -0.00193  -0.00217   2.61447
    R2        2.66329   0.00078   0.00014   0.00230   0.00244   2.66573
    R3        2.56977   0.00126   0.00052   0.00346   0.00398   2.57375
    R4        2.04538   0.00062  -0.00005   0.00169   0.00164   2.04702
    R5        2.65787  -0.00083   0.00008  -0.00177  -0.00169   2.65617
    R6        2.63490   0.00046  -0.00010   0.00084   0.00074   2.63564
    R7        2.05109   0.00002   0.00002   0.00013   0.00015   2.05125
    R8        2.60460   0.00039  -0.00017   0.00060   0.00042   2.60502
    R9        2.04854   0.00007   0.00000   0.00023   0.00023   2.04877
   R10        2.58732  -0.00116  -0.00027  -0.00314  -0.00341   2.58391
   R11        2.59051  -0.00006   0.00004   0.00019   0.00024   2.59075
   R12        2.03956   0.00054  -0.00008   0.00139   0.00131   2.04087
   R13        2.66918  -0.00082   0.00045  -0.00077  -0.00032   2.66886
   R14        2.60224  -0.00099   0.00014  -0.00131  -0.00116   2.60108
   R15        1.89509   0.00137  -0.00003   0.00315   0.00311   1.89820
   R16        2.70468  -0.00083   0.00014  -0.00118  -0.00104   2.70364
   R17        2.04039  -0.00002   0.00001  -0.00004  -0.00003   2.04037
   R18        2.64719   0.00220   0.00044   0.00561   0.00605   2.65324
   R19        2.05891   0.00035  -0.00007   0.00086   0.00079   2.05970
   R20        2.07390   0.00021  -0.00014   0.00030   0.00016   2.07405
   R21        2.07389   0.00021  -0.00014   0.00030   0.00016   2.07405
    A1        2.11083   0.00050  -0.00016   0.00214   0.00198   2.11281
    A2        2.17238  -0.00114   0.00069  -0.00342  -0.00273   2.16965
    A3        1.99997   0.00063  -0.00053   0.00128   0.00075   2.00072
    A4        2.12010   0.00027   0.00002   0.00197   0.00199   2.12209
    A5        2.06850  -0.00004   0.00011  -0.00045  -0.00034   2.06815
    A6        2.09459  -0.00023  -0.00013  -0.00152  -0.00165   2.09294
    A7        2.12446  -0.00004  -0.00003  -0.00072  -0.00075   2.12370
    A8        2.05813  -0.00017   0.00002  -0.00026  -0.00024   2.05790
    A9        2.10060   0.00022   0.00001   0.00098   0.00099   2.10159
   A10        1.91424  -0.00043   0.00047  -0.00096  -0.00049   1.91375
   A11        2.25683   0.00105   0.00042   0.00721   0.00764   2.26446
   A12        2.11212  -0.00062  -0.00089  -0.00626  -0.00715   2.10497
   A13        2.12315   0.00033  -0.00016   0.00093   0.00077   2.12392
   A14        2.28457  -0.00009  -0.00003   0.00004   0.00001   2.28458
   A15        1.87547  -0.00024   0.00018  -0.00096  -0.00078   1.87468
   A16        2.08735   0.00017  -0.00002   0.00006   0.00004   2.08739
   A17        2.33175  -0.00029   0.00020  -0.00009   0.00012   2.33187
   A18        1.86408   0.00012  -0.00018   0.00003  -0.00015   1.86393
   A19        1.86639   0.00027  -0.00008   0.00104   0.00096   1.86736
   A20        2.19279   0.00005   0.00010   0.00071   0.00081   2.19360
   A21        2.22400  -0.00031  -0.00002  -0.00175  -0.00177   2.22223
   A22        2.11841  -0.00078   0.00021  -0.00242  -0.00221   2.11620
   A23        2.06103  -0.00023  -0.00039  -0.00339  -0.00378   2.05725
   A24        2.10374   0.00101   0.00018   0.00581   0.00599   2.10973
   A25        1.90460   0.00029  -0.00040   0.00086   0.00046   1.90506
   A26        2.18816  -0.00022   0.00022  -0.00088  -0.00067   2.18750
   A27        2.19042  -0.00007   0.00018   0.00003   0.00021   2.19063
   A28        2.06376  -0.00298  -0.00010  -0.01285  -0.01295   2.05081
   A29        1.85822  -0.00040   0.00012  -0.00240  -0.00228   1.85594
   A30        1.95236  -0.00055  -0.00015  -0.00377  -0.00392   1.94844
   A31        1.95236  -0.00055  -0.00015  -0.00376  -0.00392   1.94844
   A32        1.90094   0.00047   0.00011   0.00329   0.00340   1.90434
   A33        1.90094   0.00047   0.00011   0.00329   0.00340   1.90434
   A34        1.89763   0.00059  -0.00003   0.00360   0.00356   1.90119
    D1        3.14158   0.00000   0.00000   0.00001   0.00001   3.14159
    D2        0.00000   0.00000   0.00000   0.00000   0.00000   0.00000
    D3       -0.00002   0.00000   0.00000   0.00002   0.00002   0.00000
    D4        3.14158   0.00000   0.00000   0.00002   0.00001  -3.14159
    D5        0.00000   0.00000   0.00000   0.00000   0.00000   0.00000
    D6       -3.14159   0.00000   0.00000   0.00000   0.00000  -3.14159
    D7       -3.14158   0.00000   0.00000  -0.00001  -0.00001  -3.14159
    D8        0.00001   0.00000   0.00000  -0.00001  -0.00001   0.00000
    D9        0.00002   0.00000   0.00000  -0.00001  -0.00001   0.00001
   D10       -3.14158   0.00000   0.00000   0.00000   0.00000  -3.14158
   D11       -0.00001   0.00000   0.00000   0.00000   0.00000   0.00000
   D12       -3.14158   0.00000   0.00000  -0.00001  -0.00001  -3.14159
   D13       -3.14159   0.00000   0.00000   0.00000   0.00000  -3.14159
   D14        0.00002   0.00000   0.00000  -0.00001  -0.00001   0.00001
   D15        3.14158   0.00000   0.00000   0.00000   0.00001   3.14159
   D16       -0.00001   0.00000   0.00000   0.00000   0.00000  -0.00001
   D17       -0.00002   0.00000   0.00000   0.00002   0.00002   0.00000
   D18        3.14158   0.00000   0.00000   0.00001   0.00001   3.14159
   D19        0.00001   0.00000   0.00000  -0.00001  -0.00001   0.00000
   D20       -3.14159   0.00000   0.00000  -0.00001  -0.00001   3.14159
   D21        3.14159   0.00000   0.00000   0.00000   0.00000   3.14159
   D22        0.00000   0.00000   0.00000   0.00000   0.00000   0.00000
   D23        0.00000   0.00000   0.00000   0.00000   0.00000   0.00000
   D24       -3.14158   0.00000   0.00000  -0.00001  -0.00001  -3.14159
   D25       -3.14159   0.00000   0.00000   0.00000   0.00000  -3.14159
   D26        0.00002   0.00000   0.00000  -0.00001  -0.00001   0.00001
   D27        0.00000   0.00000   0.00000   0.00000   0.00000   0.00000
   D28        3.14159   0.00000   0.00000   0.00000   0.00000   3.14159
   D29        3.14159   0.00000   0.00000   0.00000   0.00000   3.14159
   D30       -0.00001   0.00000   0.00000   0.00000   0.00000  -0.00001
   D31        0.00002   0.00000   0.00000  -0.00001  -0.00001   0.00001
   D32       -3.14159   0.00000   0.00000  -0.00001  -0.00001   3.14159
   D33       -3.14158   0.00000   0.00000  -0.00001  -0.00001  -3.14159
   D34        0.00000   0.00000   0.00000   0.00000   0.00000   0.00000
   D35        3.14159   0.00000   0.00000   0.00001   0.00001  -3.14159
   D36        0.00001   0.00000   0.00000   0.00000   0.00000   0.00001
   D37        0.00000   0.00000   0.00000   0.00000   0.00000   0.00000
   D38       -3.14158   0.00000   0.00000   0.00000   0.00000  -3.14159
   D39        3.14158   0.00000   0.00000   0.00001   0.00001   3.14159
   D40       -0.00004   0.00000   0.00000   0.00002   0.00002  -0.00002
   D41        0.00000   0.00000   0.00000   0.00000   0.00000   0.00000
   D42        3.14157   0.00000   0.00000   0.00001   0.00001   3.14159
   D43       -3.14159   0.00000   0.00000   0.00000   0.00000  -3.14159
   D44       -1.06688   0.00002   0.00013   0.00039   0.00052  -1.06636
   D45        1.06690  -0.00002  -0.00013  -0.00040  -0.00053   1.06636
         Item               Value     Threshold  Converged?
 Maximum Force            0.002976     0.000450     NO 
 RMS     Force            0.000560     0.000300     NO 
 Maximum Displacement     0.038674     0.001800     NO 
 RMS     Displacement     0.008836     0.001200     NO 
 Predicted change in Energy=-5.704272D-05
 GradGradGradGradGradGradGradGradGradGradGradGradGradGradGradGradGradGrad

                          Input orientation:                          
 ---------------------------------------------------------------------
 Center     Atomic      Atomic             Coordinates (Angstroms)
 Number     Number       Type             X           Y           Z
 ---------------------------------------------------------------------
      1          6           0       -3.808839    1.300316   -0.012578
      2          6           0       -2.728206    2.162768   -0.062900
      3          6           0       -2.360263   -0.645033    0.145746
      4          1           0       -4.505835   -0.722083    0.126604
      5          6           0        0.766805    1.153790    0.050864
      6          6           0       -1.267649    0.220357    0.095348
      7          1           0        0.506686   -0.941778    0.200414
      8          1           0       -2.861138    3.234870   -0.142483
      9          6           0       -1.433175    1.619081   -0.008388
     10          6           0       -0.121483    2.189765   -0.034800
     11          1           0       -2.232806   -1.720044    0.225473
     12          6           0       -3.622744   -0.094153    0.091081
     13          7           0        0.084847   -0.032934    0.129390
     14          8           0       -5.110851    1.697556   -0.056513
     15          1           0        0.136007    3.235772   -0.107983
     16          1           0        1.846617    1.169239    0.062199
     17          6           0       -5.365517    3.074442   -0.159694
     18          1           0       -6.449646    3.185023   -0.180244
     19          1           0       -4.964326    3.625771    0.700351
     20          1           0       -4.943786    3.496075   -1.081086
 ---------------------------------------------------------------------
                    Distance matrix (angstroms):
                    1          2          3          4          5
     1  C    0.000000
     2  C    1.383519   0.000000
     3  C    2.430601   2.839483   0.000000
     4  H    2.143659   3.393854   2.147040   0.000000
     5  C    4.578429   3.639516   3.608784   5.596907   0.000000
     6  C    2.763260   2.435412   1.394720   3.372687   2.238813
     7  H    4.867865   4.491332   2.882784   5.017876   2.116940
     8  H    2.158126   1.083239   3.922703   4.293589   4.186913
     9  C    2.396958   1.405586   2.451420   3.865296   2.249426
    10  C    3.793179   2.607014   3.616740   5.265686   1.367347
    11  H    3.415131   3.924896   1.085472   2.484424   4.157774
    12  C    1.410646   2.432612   1.378519   1.084162   4.563675
    13  N    4.118070   3.573703   2.520615   4.642122   1.370966
    14  O    1.361971   2.427646   3.618614   2.500845   5.903732
    15  H    4.395100   3.058935   4.621298   6.104617   2.181235
    16  H    5.657469   4.683135   4.582183   6.628340   1.079982
    17  C    2.364828   2.792119   4.791590   3.903155   6.429511
    18  H    3.248706   3.861074   5.612366   4.374703   7.500432
    19  H    2.692797   2.779058   5.032742   4.409448   6.275220
    20  H    2.692799   2.779065   5.032741   4.409441   6.275225
                    6          7          8          9         10
     6  C    0.000000
     7  H    2.123643   0.000000
     8  H    3.418049   5.376263   0.000000
     9  C    1.412299   3.219418   2.160517   0.000000
    10  C    2.282368   3.202575   2.934203   1.430703   0.000000
    11  H    2.171086   2.848007   5.008130   3.441490   4.451071
    12  C    2.376007   4.216944   3.423009   2.781956   4.182219
    13  N    1.376431   1.004485   4.408093   2.247782   2.238285
    14  O    4.120119   6.211990   2.726158   3.678828   5.013635
    15  H    3.332316   4.205287   2.997344   2.255204   1.079717
    16  H    3.255784   2.504179   5.145064   3.311249   2.219077
    17  C    5.000337   7.123375   2.509571   4.195746   5.319600
    18  H    5.976478   8.097280   3.589053   5.258012   6.407600
    19  H    5.062440   7.144537   2.299255   4.122881   5.104477
    20  H    5.062441   7.144538   2.299266   4.122884   5.104484
                   11         12         13         14         15
    11  H    0.000000
    12  C    2.143248   0.000000
    13  N    2.868291   3.708295   0.000000
    14  O    4.476901   2.333767   5.479456   0.000000
    15  H    5.502962   5.025559   3.277713   5.467932   0.000000
    16  H    5.001630   5.613457   2.133908   6.978508   2.688068
    17  C    5.740150   3.624933   6.280591   1.404036   5.504132
    18  H    6.481205   4.337970   7.290454   2.005053   6.586245
    19  H    6.021997   4.001111   6.261491   2.076614   5.178697
    20  H    6.021993   4.001107   6.261494   2.076615   5.178705
                   16         17         18         19         20
    16  H    0.000000
    17  C    7.462835   0.000000
    18  H    8.541085   1.089948   0.000000
    19  H    7.268475   1.097540   1.782101   0.000000
    20  H    7.268482   1.097540   1.782101   1.786270   0.000000
 Stoichiometry    C9H9NO
 Framework group  C1[X(C9H9NO)]
 Deg. of freedom    54
 Full point group                 C1      NOp   1
 Largest Abelian subgroup         C1      NOp   1
 Largest concise Abelian subgroup C1      NOp   1
                         Standard orientation:                         
 ---------------------------------------------------------------------
 Center     Atomic      Atomic             Coordinates (Angstroms)
 Number     Number       Type             X           Y           Z
 ---------------------------------------------------------------------
      1          6           0       -1.428536    0.305943   -0.000003
      2          6           0       -0.627455   -0.822061   -0.000002
      3          6           0        0.501529    1.783329    0.000001
      4          1           0       -1.540468    2.446677    0.000004
      5          6           0        3.012038   -0.809096   -0.000001
      6          6           0        1.313320    0.649204    0.000001
      7          1           0        3.340425    1.282219    0.000004
      8          1           0       -1.051265   -1.818952    0.000000
      9          6           0        0.767996   -0.653566    0.000003
     10          6           0        1.871821   -1.563776   -0.000001
     11          1           0        0.920877    2.784527    0.000003
     12          6           0       -0.864606    1.598964    0.000001
     13          7           0        2.683862    0.522011   -0.000001
     14          8           0       -2.790270    0.280524   -0.000004
     15          1           0        1.830660   -2.642708    0.000005
     16          1           0        4.046164   -1.120456   -0.000005
     17          6           0       -3.415287   -0.976724    0.000003
     18          1           0       -4.488357   -0.785656   -0.000001
     19          1           0       -3.153911   -1.558613   -0.893128
     20          1           0       -3.153916   -1.558602    0.893142
 ---------------------------------------------------------------------
 Rotational constants (GHZ):      2.8710327      0.7624981      0.6048061
 Standard basis: 6-311++G(d,p) (5D, 7F)
 There are   316 symmetry adapted cartesian basis functions of A   symmetry.
 There are   305 symmetry adapted basis functions of A   symmetry.
   305 basis functions,   477 primitive gaussians,   316 cartesian basis functions
    39 alpha electrons       39 beta electrons
       nuclear repulsion energy       573.0389288669 Hartrees.
 NAtoms=   20 NActive=   20 NUniq=   20 SFac= 1.00D+00 NAtFMM=   60 NAOKFM=F Big=F
 Integral buffers will be    131072 words long.
 Raffenetti 2 integral format.
 Two-electron integral symmetry is turned on.
 One-electron integrals computed using PRISM.
 NBasis=   305 RedAO= T EigKep=  1.01D-06  NBF=   305
 NBsUse=   303 1.00D-06 EigRej=  8.11D-07 NBFU=   303
 Initial guess from the checkpoint file:  "opt_203.chk"
 B after Tr=     0.000000    0.000000    0.000000
         Rot=    1.000000    0.000000    0.000000   -0.000079 Ang=  -0.01 deg.
 Initial guess <Sx>= 0.0000 <Sy>= 0.0000 <Sz>= 0.0000 <S**2>= 0.0000 S= 0.0000
 ExpMin= 3.60D-02 ExpMax= 8.59D+03 ExpMxC= 1.30D+03 IAcc=3 IRadAn=         5 AccDes= 0.00D+00
 Harris functional with IExCor= 1009 and IRadAn=       5 diagonalized for initial guess.
 HarFok:  IExCor= 1009 AccDes= 0.00D+00 IRadAn=         5 IDoV= 1 UseB2=F ITyADJ=14
 ICtDFT=  3500011 ScaDFX=  1.000000  1.000000  1.000000  1.000000
 FoFCou: FMM=F IPFlag=           0 FMFlag=      100000 FMFlg1=           0
         NFxFlg=           0 DoJE=T BraDBF=F KetDBF=T FulRan=T
         wScrn=  0.000000 ICntrl=     500 IOpCl=  0 I1Cent=   200000004 NGrid=           0
         NMat0=    1 NMatS0=      1 NMatT0=    0 NMatD0=    1 NMtDS0=    0 NMtDT0=    0
 Petite list used in FoFCou.
 Keep R1 and R2 ints in memory in canonical form, NReq=2193923028.
 Requested convergence on RMS density matrix=1.00D-08 within 128 cycles.
 Requested convergence on MAX density matrix=1.00D-06.
 Requested convergence on             energy=1.00D-06.
 No special actions if energy rises.
 SCF Done:  E(UPBE1PBE) =  -477.908203666     A.U. after   13 cycles
            NFock= 13  Conv=0.74D-08     -V/T= 2.0039
 <Sx>= 0.0000 <Sy>= 0.0000 <Sz>= 0.0000 <S**2>= 0.0000 S= 0.0000
 <L.S>= 0.000000000000E+00
 Annihilation of the first spin contaminant:
 S**2 before annihilation     0.0000,   after     0.0000
 Calling FoFJK, ICntrl=      2127 FMM=F ISym2X=0 I1Cent= 0 IOpClX= 1 NMat=1 NMatS=1 NMatT=0.
 ***** Axes restored to original set *****
 -------------------------------------------------------------------
 Center     Atomic                   Forces (Hartrees/Bohr)
 Number     Number              X              Y              Z
 -------------------------------------------------------------------
      1        6           0.000257309   -0.000658609    0.000050581
      2        6           0.000228340    0.000551711   -0.000037963
      3        6          -0.000065761   -0.000116623    0.000007502
      4        1          -0.000023281    0.000094462   -0.000007034
      5        6           0.000833824   -0.000096150    0.000016923
      6        6           0.000472579    0.000686619   -0.000044603
      7        1          -0.000016320    0.000174152   -0.000012797
      8        1           0.000236127   -0.000132953    0.000012534
      9        6           0.000510710   -0.000750338    0.000061360
     10        6          -0.000777026    0.000099614   -0.000016950
     11        1           0.000063670    0.000029529   -0.000001348
     12        6          -0.000165860   -0.000090096    0.000004760
     13        7          -0.000899072   -0.000078889   -0.000004693
     14        8          -0.000131870   -0.000567713    0.000039777
     15        1          -0.000096737    0.000045980   -0.000004184
     16        1           0.000057289   -0.000053281    0.000004371
     17        6          -0.000294900    0.001243079   -0.000093586
     18        1          -0.000027455   -0.000120731    0.000008430
     19        1          -0.000081383   -0.000126423    0.000055575
     20        1          -0.000080184   -0.000133340   -0.000038655
 -------------------------------------------------------------------
 Cartesian Forces:  Max     0.001243079 RMS     0.000335591

 GradGradGradGradGradGradGradGradGradGradGradGradGradGradGradGradGradGrad
 Berny optimization.
 Using GEDIIS/GDIIS optimizer.
 FormGI is forming the generalized inverse of G from B-inverse, IUseBI=4.
 Internal  Forces:  Max     0.001015123 RMS     0.000222040
 Search for a local minimum.
 Step number   4 out of a maximum of  110
 All quantities printed in internal units (Hartrees-Bohrs-Radians)
 Mixed Optimization -- En-DIIS/RFO-DIIS
 Swapping is turned off.
 Update second derivatives using D2CorX and points    1    2    3    4
 DE= -5.55D-05 DEPred=-5.70D-05 R= 9.73D-01
 TightC=F SS=  1.41D+00  RLast= 2.30D-02 DXNew= 8.4853D-01 6.8907D-02
 Trust test= 9.73D-01 RLast= 2.30D-02 DXMaxT set to 5.05D-01
 ITU=  1  1  1  0
     Eigenvalues ---    0.01881   0.01945   0.01949   0.01965   0.02017
     Eigenvalues ---    0.02074   0.02102   0.02248   0.02255   0.02285
     Eigenvalues ---    0.02312   0.02332   0.02337   0.02374   0.02388
     Eigenvalues ---    0.10287   0.10791   0.12101   0.16000   0.16000
     Eigenvalues ---    0.16000   0.16000   0.16000   0.16036   0.16095
     Eigenvalues ---    0.16182   0.22396   0.23175   0.23494   0.23913
     Eigenvalues ---    0.24717   0.25772   0.31768   0.32503   0.32726
     Eigenvalues ---    0.33196   0.35675   0.35710   0.35733   0.35758
     Eigenvalues ---    0.36261   0.39119   0.40206   0.41492   0.42051
     Eigenvalues ---    0.43627   0.44748   0.45860   0.46140   0.48055
     Eigenvalues ---    0.49670   0.52563   0.54555   0.55296
 En-DIIS/RFO-DIIS IScMMF=        0 using points:     4    3
 RFO step:  Lambda=-8.01394895D-06.
 DidBck=F Rises=F RFO-DIIS coefs:    0.97717    0.02283
 Iteration  1 RMS(Cart)=  0.00258419 RMS(Int)=  0.00000274
 Iteration  2 RMS(Cart)=  0.00000344 RMS(Int)=  0.00000020
 Iteration  3 RMS(Cart)=  0.00000000 RMS(Int)=  0.00000020
 Variable       Old X    -DE/DX   Delta X   Delta X   Delta X     New X
                                 (Linear)    (Quad)   (Total)
    R1        2.61447   0.00054   0.00005   0.00095   0.00100   2.61547
    R2        2.66573  -0.00007  -0.00006   0.00025   0.00019   2.66593
    R3        2.57375   0.00067  -0.00009   0.00173   0.00164   2.57539
    R4        2.04702  -0.00016  -0.00004  -0.00021  -0.00025   2.04678
    R5        2.65617   0.00004   0.00004  -0.00016  -0.00012   2.65605
    R6        2.63564   0.00016  -0.00002   0.00038   0.00036   2.63600
    R7        2.05125  -0.00002   0.00000  -0.00003  -0.00004   2.05121
    R8        2.60502   0.00006  -0.00001   0.00018   0.00017   2.60519
    R9        2.04877  -0.00004  -0.00001  -0.00006  -0.00007   2.04870
   R10        2.58391   0.00042   0.00008   0.00056   0.00063   2.58454
   R11        2.59075   0.00021  -0.00001   0.00056   0.00055   2.59130
   R12        2.04087   0.00006  -0.00003   0.00033   0.00030   2.04117
   R13        2.66886  -0.00065   0.00001  -0.00148  -0.00147   2.66738
   R14        2.60108  -0.00050   0.00003  -0.00104  -0.00101   2.60007
   R15        1.89820  -0.00016  -0.00007  -0.00006  -0.00013   1.89807
   R16        2.70364  -0.00038   0.00002  -0.00081  -0.00079   2.70285
   R17        2.04037   0.00002   0.00000   0.00004   0.00004   2.04041
   R18        2.65324   0.00095  -0.00014   0.00270   0.00256   2.65581
   R19        2.05970   0.00001  -0.00002   0.00010   0.00009   2.05979
   R20        2.07405  -0.00005   0.00000  -0.00014  -0.00015   2.07390
   R21        2.07405  -0.00005   0.00000  -0.00014  -0.00015   2.07390
    A1        2.11281  -0.00008  -0.00005   0.00020   0.00016   2.11297
    A2        2.16965   0.00040   0.00006   0.00107   0.00113   2.17079
    A3        2.00072  -0.00032  -0.00002  -0.00127  -0.00129   1.99943
    A4        2.12209   0.00027  -0.00005   0.00179   0.00174   2.12383
    A5        2.06815  -0.00008   0.00001  -0.00040  -0.00039   2.06776
    A6        2.09294  -0.00018   0.00004  -0.00139  -0.00135   2.09159
    A7        2.12370  -0.00009   0.00002  -0.00049  -0.00047   2.12323
    A8        2.05790   0.00004   0.00001  -0.00001   0.00000   2.05789
    A9        2.10159   0.00004  -0.00002   0.00050   0.00047   2.10206
   A10        1.91375  -0.00047   0.00001  -0.00163  -0.00162   1.91213
   A11        2.26446   0.00029  -0.00017   0.00222   0.00205   2.26651
   A12        2.10497   0.00017   0.00016  -0.00059  -0.00043   2.10454
   A13        2.12392   0.00009  -0.00002   0.00038   0.00036   2.12428
   A14        2.28458  -0.00016   0.00000  -0.00009  -0.00009   2.28449
   A15        1.87468   0.00008   0.00002  -0.00029  -0.00027   1.87441
   A16        2.08739   0.00011   0.00000   0.00031   0.00031   2.08770
   A17        2.33187  -0.00031   0.00000  -0.00079  -0.00079   2.33108
   A18        1.86393   0.00020   0.00000   0.00048   0.00048   1.86441
   A19        1.86736   0.00000  -0.00002   0.00042   0.00040   1.86776
   A20        2.19360   0.00011  -0.00002   0.00057   0.00055   2.19415
   A21        2.22223  -0.00010   0.00004  -0.00099  -0.00095   2.22128
   A22        2.11620  -0.00007   0.00005  -0.00049  -0.00044   2.11577
   A23        2.05725  -0.00006   0.00009  -0.00102  -0.00093   2.05632
   A24        2.10973   0.00013  -0.00014   0.00151   0.00137   2.11110
   A25        1.90506   0.00019  -0.00001   0.00102   0.00101   1.90607
   A26        2.18750  -0.00015   0.00002  -0.00089  -0.00087   2.18662
   A27        2.19063  -0.00004   0.00000  -0.00014  -0.00014   2.19049
   A28        2.05081   0.00102   0.00030   0.00201   0.00230   2.05311
   A29        1.85594  -0.00019   0.00005  -0.00180  -0.00175   1.85419
   A30        1.94844  -0.00007   0.00009  -0.00075  -0.00066   1.94778
   A31        1.94844  -0.00007   0.00009  -0.00075  -0.00066   1.94778
   A32        1.90434   0.00005  -0.00008   0.00057   0.00049   1.90483
   A33        1.90434   0.00005  -0.00008   0.00057   0.00049   1.90483
   A34        1.90119   0.00021  -0.00008   0.00212   0.00203   1.90322
    D1        3.14159   0.00000   0.00000   0.00001   0.00001  -3.14159
    D2        0.00000   0.00000   0.00000   0.00000   0.00000   0.00000
    D3        0.00000   0.00000   0.00000   0.00000   0.00000   0.00000
    D4       -3.14159   0.00000   0.00000   0.00000   0.00000   3.14159
    D5        0.00000   0.00000   0.00000   0.00000   0.00000   0.00000
    D6       -3.14159   0.00000   0.00000   0.00000   0.00000  -3.14159
    D7       -3.14159   0.00000   0.00000   0.00000   0.00000  -3.14159
    D8        0.00000   0.00000   0.00000   0.00000   0.00000   0.00000
    D9        0.00001   0.00000   0.00000   0.00000   0.00000   0.00000
   D10       -3.14158   0.00000   0.00000  -0.00001  -0.00001  -3.14159
   D11        0.00000   0.00000   0.00000   0.00000   0.00000   0.00000
   D12       -3.14159   0.00000   0.00000   0.00000   0.00000  -3.14159
   D13       -3.14159   0.00000   0.00000   0.00000   0.00000   3.14159
   D14        0.00001   0.00000   0.00000  -0.00001  -0.00001   0.00000
   D15        3.14159   0.00000   0.00000   0.00000   0.00000  -3.14159
   D16       -0.00001   0.00000   0.00000   0.00000   0.00000   0.00000
   D17        0.00000   0.00000   0.00000   0.00000   0.00000   0.00000
   D18        3.14159   0.00000   0.00000   0.00000   0.00000   3.14159
   D19        0.00000   0.00000   0.00000   0.00000   0.00000   0.00000
   D20        3.14159   0.00000   0.00000   0.00000   0.00000   3.14159
   D21        3.14159   0.00000   0.00000   0.00000   0.00000   3.14159
   D22        0.00000   0.00000   0.00000   0.00000   0.00000   0.00000
   D23        0.00000   0.00000   0.00000   0.00000   0.00000   0.00000
   D24       -3.14159   0.00000   0.00000   0.00000   0.00000  -3.14159
   D25       -3.14159   0.00000   0.00000   0.00000   0.00000  -3.14159
   D26        0.00001   0.00000   0.00000  -0.00001  -0.00001   0.00000
   D27        0.00000   0.00000   0.00000   0.00000   0.00000   0.00000
   D28        3.14159   0.00000   0.00000   0.00000   0.00000   3.14159
   D29        3.14159   0.00000   0.00000   0.00000   0.00000   3.14159
   D30       -0.00001   0.00000   0.00000   0.00000   0.00000  -0.00001
   D31        0.00001   0.00000   0.00000   0.00000   0.00000   0.00000
   D32        3.14159   0.00000   0.00000   0.00000   0.00000   3.14159
   D33       -3.14159   0.00000   0.00000   0.00000   0.00000  -3.14159
   D34        0.00000   0.00000   0.00000   0.00000   0.00000   0.00000
   D35       -3.14159   0.00000   0.00000   0.00000   0.00000  -3.14159
   D36        0.00001   0.00000   0.00000   0.00000   0.00000   0.00001
   D37        0.00000   0.00000   0.00000   0.00000   0.00000   0.00000
   D38       -3.14159   0.00000   0.00000   0.00000   0.00000  -3.14159
   D39        3.14159   0.00000   0.00000   0.00000   0.00000   3.14159
   D40       -0.00002   0.00000   0.00000   0.00001   0.00001  -0.00001
   D41        0.00000   0.00000   0.00000   0.00000   0.00000   0.00000
   D42        3.14159   0.00000   0.00000   0.00000   0.00000   3.14159
   D43       -3.14159   0.00000   0.00000   0.00000   0.00000   3.14159
   D44       -1.06636  -0.00009  -0.00001  -0.00084  -0.00085  -1.06721
   D45        1.06636   0.00009   0.00001   0.00083   0.00084   1.06720
         Item               Value     Threshold  Converged?
 Maximum Force            0.001015     0.000450     NO 
 RMS     Force            0.000222     0.000300     YES
 Maximum Displacement     0.010639     0.001800     NO 
 RMS     Displacement     0.002585     0.001200     NO 
 Predicted change in Energy=-6.917840D-06
 GradGradGradGradGradGradGradGradGradGradGradGradGradGradGradGradGradGrad

                          Input orientation:                          
 ---------------------------------------------------------------------
 Center     Atomic      Atomic             Coordinates (Angstroms)
 Number     Number       Type             X           Y           Z
 ---------------------------------------------------------------------
      1          6           0       -3.807330    1.301307   -0.012637
      2          6           0       -2.725776    2.163452   -0.062926
      3          6           0       -2.359879   -0.644710    0.145726
      4          1           0       -4.506386   -0.719830    0.126437
      5          6           0        0.768805    1.152750    0.050963
      6          6           0       -1.266846    0.220461    0.095349
      7          1           0        0.506341   -0.942277    0.200448
      8          1           0       -2.856185    3.235732   -0.142491
      9          6           0       -1.431340    1.618524   -0.008326
     10          6           0       -0.119920    2.188791   -0.034712
     11          1           0       -2.232250   -1.719680    0.225456
     12          6           0       -3.622269   -0.093402    0.091031
     13          7           0        0.085023   -0.033268    0.129417
     14          8           0       -5.110387    1.698096   -0.056551
     15          1           0        0.136782    3.235015   -0.107918
     16          1           0        1.848801    1.166219    0.062442
     17          6           0       -5.369228    3.075581   -0.159818
     18          1           0       -6.453905    3.181200   -0.180017
     19          1           0       -4.969956    3.627307    0.700765
     20          1           0       -4.949396    3.497532   -1.081839
 ---------------------------------------------------------------------
                    Distance matrix (angstroms):
                    1          2          3          4          5
     1  C    0.000000
     2  C    1.384046   0.000000
     3  C    2.430468   2.839576   0.000000
     4  H    2.143133   3.394076   2.147908   0.000000
     5  C    4.578987   3.639586   3.609502   5.598204   0.000000
     6  C    2.762960   2.434901   1.394912   3.373386   2.239421
     7  H    4.866912   4.490156   2.882144   5.018206   2.116688
     8  H    2.159523   1.083107   3.922655   4.294410   4.185307
     9  C    2.397076   1.405523   2.451151   3.865484   2.249688
    10  C    3.792770   2.606132   3.616448   5.265656   1.367682
    11  H    3.415249   3.924978   1.085453   2.486201   4.157840
    12  C    1.410747   2.433268   1.378608   1.084126   4.564650
    13  N    4.117242   3.572557   2.520252   4.642457   1.371259
    14  O    1.362838   2.429602   3.618694   2.498933   5.905409
    15  H    4.393668   3.056879   4.620597   6.103665   2.181863
    16  H    5.658242   4.683689   4.582509   6.629455   1.080141
    17  C    2.368383   2.798072   4.794799   3.902766   6.435617
    18  H    3.250596   3.866324   5.612908   4.370901   7.505698
    19  H    2.696464   2.786115   5.036933   4.409348   6.283236
    20  H    2.696462   2.786115   5.036931   4.409346   6.283237
                    6          7          8          9         10
     6  C    0.000000
     7  H    2.123016   0.000000
     8  H    3.416786   5.374007   0.000000
     9  C    1.411519   3.218057   2.159525   0.000000
    10  C    2.281815   3.201732   2.931697   1.430287   0.000000
    11  H    2.170963   2.846904   5.008073   3.440889   4.450368
    12  C    2.376246   4.216394   3.424113   2.782217   4.182184
    13  N    1.375895   1.004416   4.405792   2.246496   2.237518
    14  O    4.120593   6.211702   2.730044   3.680224   5.014581
    15  H    3.331520   4.204930   2.993167   2.254322   1.079741
    16  H    3.256193   2.503398   5.144101   3.311934   2.220575
    17  C    5.004634   7.127081   2.518201   4.201539   5.325156
    18  H    5.978911   8.098940   3.598329   5.262850   6.412905
    19  H    5.068151   7.149912   2.309207   4.130354   5.112055
    20  H    5.068149   7.149911   2.309209   4.130354   5.112056
                   11         12         13         14         15
    11  H    0.000000
    12  C    2.143596   0.000000
    13  N    2.867571   3.707978   0.000000
    14  O    4.477096   2.333611   5.479461   0.000000
    15  H    5.502041   5.024779   3.277298   5.467864   0.000000
    16  H    5.000997   5.614273   2.134050   6.980498   2.690715
    17  C    5.743135   3.627292   6.284700   1.405392   5.508563
    18  H    6.481157   4.337585   7.292882   2.004964   6.591301
    19  H    6.025879   4.003962   6.267301   2.077283   5.185232
    20  H    6.025878   4.003960   6.267301   2.077283   5.185233
                   16         17         18         19         20
    16  H    0.000000
    17  C    7.469606   0.000000
    18  H    8.547155   1.089994   0.000000
    19  H    7.277352   1.097462   1.782384   0.000000
    20  H    7.277354   1.097462   1.782384   1.787439   0.000000
 Stoichiometry    C9H9NO
 Framework group  C1[X(C9H9NO)]
 Deg. of freedom    54
 Full point group                 C1      NOp   1
 Largest Abelian subgroup         C1      NOp   1
 Largest concise Abelian subgroup C1      NOp   1
                         Standard orientation:                         
 ---------------------------------------------------------------------
 Center     Atomic      Atomic             Coordinates (Angstroms)
 Number     Number       Type             X           Y           Z
 ---------------------------------------------------------------------
      1          6           0       -1.427782    0.305049    0.000000
      2          6           0       -0.625907   -0.823037    0.000001
      3          6           0        0.501617    1.783086    0.000001
      4          1           0       -1.541708    2.445151    0.000000
      5          6           0        3.013652   -0.808860   -0.000001
      6          6           0        1.313695    0.648931    0.000002
      7          1           0        3.339961    1.282526    0.000002
      8          1           0       -1.047496   -1.820726    0.000000
      9          6           0        0.769341   -0.653400    0.000002
     10          6           0        1.872878   -1.563306    0.000000
     11          1           0        0.921276    2.784133    0.000000
     12          6           0       -0.864577    1.598497    0.000000
     13          7           0        2.683734    0.522119   -0.000001
     14          8           0       -2.790400    0.280565   -0.000002
     15          1           0        1.830731   -2.642224    0.000002
     16          1           0        4.048452   -1.118525   -0.000004
     17          6           0       -3.419794   -0.976014    0.000000
     18          1           0       -4.491990   -0.779847   -0.000001
     19          1           0       -3.160445   -1.557761   -0.893718
     20          1           0       -3.160446   -1.557758    0.893721
 ---------------------------------------------------------------------
 Rotational constants (GHZ):      2.8723430      0.7617473      0.6043948
 Standard basis: 6-311++G(d,p) (5D, 7F)
 There are   316 symmetry adapted cartesian basis functions of A   symmetry.
 There are   305 symmetry adapted basis functions of A   symmetry.
   305 basis functions,   477 primitive gaussians,   316 cartesian basis functions
    39 alpha electrons       39 beta electrons
       nuclear repulsion energy       572.9300893457 Hartrees.
 NAtoms=   20 NActive=   20 NUniq=   20 SFac= 1.00D+00 NAtFMM=   60 NAOKFM=F Big=F
 Integral buffers will be    131072 words long.
 Raffenetti 2 integral format.
 Two-electron integral symmetry is turned on.
 One-electron integrals computed using PRISM.
 NBasis=   305 RedAO= T EigKep=  1.01D-06  NBF=   305
 NBsUse=   303 1.00D-06 EigRej=  8.15D-07 NBFU=   303
 Initial guess from the checkpoint file:  "opt_203.chk"
 B after Tr=     0.000000    0.000000    0.000000
         Rot=    1.000000    0.000000    0.000000    0.000021 Ang=   0.00 deg.
 Initial guess <Sx>= 0.0000 <Sy>= 0.0000 <Sz>= 0.0000 <S**2>= 0.0000 S= 0.0000
 Keep R1 and R2 ints in memory in canonical form, NReq=2193923028.
 Requested convergence on RMS density matrix=1.00D-08 within 128 cycles.
 Requested convergence on MAX density matrix=1.00D-06.
 Requested convergence on             energy=1.00D-06.
 No special actions if energy rises.
 SCF Done:  E(UPBE1PBE) =  -477.908210330     A.U. after   10 cycles
            NFock= 10  Conv=0.84D-08     -V/T= 2.0039
 <Sx>= 0.0000 <Sy>= 0.0000 <Sz>= 0.0000 <S**2>= 0.0000 S= 0.0000
 <L.S>= 0.000000000000E+00
 Annihilation of the first spin contaminant:
 S**2 before annihilation     0.0000,   after     0.0000
 Calling FoFJK, ICntrl=      2127 FMM=F ISym2X=0 I1Cent= 0 IOpClX= 1 NMat=1 NMatS=1 NMatT=0.
 ***** Axes restored to original set *****
 -------------------------------------------------------------------
 Center     Atomic                   Forces (Hartrees/Bohr)
 Number     Number              X              Y              Z
 -------------------------------------------------------------------
      1        6          -0.000072877   -0.000037465    0.000001962
      2        6          -0.000267338    0.000208395   -0.000018338
      3        6          -0.000095398   -0.000072566    0.000004135
      4        1           0.000035261   -0.000005554    0.000000829
      5        6           0.000251643   -0.000154081    0.000014199
      6        6           0.000249071    0.000232367   -0.000013920
      7        1          -0.000010260    0.000080214   -0.000005907
      8        1          -0.000030076   -0.000015449    0.000000781
      9        6           0.000221247   -0.000310563    0.000025294
     10        6          -0.000251135    0.000242581   -0.000020758
     11        1           0.000023150    0.000009618   -0.000000423
     12        6           0.000037992    0.000102208   -0.000007055
     13        7          -0.000233573   -0.000296495    0.000018793
     14        8           0.000247498   -0.000145388    0.000013388
     15        1          -0.000036709    0.000027420   -0.000002302
     16        1          -0.000089957    0.000048133   -0.000004621
     17        6           0.000030123    0.000217787   -0.000015528
     18        1           0.000030532   -0.000017847    0.000001628
     19        1          -0.000019208   -0.000058944   -0.000027553
     20        1          -0.000019985   -0.000054371    0.000035398
 -------------------------------------------------------------------
 Cartesian Forces:  Max     0.000310563 RMS     0.000124281

 GradGradGradGradGradGradGradGradGradGradGradGradGradGradGradGradGradGrad
 Berny optimization.
 Using GEDIIS/GDIIS optimizer.
 FormGI is forming the generalized inverse of G from B-inverse, IUseBI=4.
 Internal  Forces:  Max     0.000277728 RMS     0.000068292
 Search for a local minimum.
 Step number   5 out of a maximum of  110
 All quantities printed in internal units (Hartrees-Bohrs-Radians)
 Mixed Optimization -- En-DIIS/RFO-DIIS
 Swapping is turned off.
 Update second derivatives using D2CorX and points    1    2    3    4    5
 DE= -6.66D-06 DEPred=-6.92D-06 R= 9.63D-01
 TightC=F SS=  1.41D+00  RLast= 7.29D-03 DXNew= 8.4853D-01 2.1876D-02
 Trust test= 9.63D-01 RLast= 7.29D-03 DXMaxT set to 5.05D-01
 ITU=  1  1  1  1  0
     Eigenvalues ---    0.01881   0.01946   0.01949   0.01965   0.02017
     Eigenvalues ---    0.02074   0.02102   0.02248   0.02255   0.02285
     Eigenvalues ---    0.02312   0.02332   0.02338   0.02374   0.02388
     Eigenvalues ---    0.10218   0.10805   0.11827   0.15805   0.16000
     Eigenvalues ---    0.16000   0.16000   0.16000   0.16023   0.16097
     Eigenvalues ---    0.16216   0.22282   0.23091   0.23508   0.23853
     Eigenvalues ---    0.24720   0.27135   0.31715   0.32503   0.32753
     Eigenvalues ---    0.33309   0.35662   0.35713   0.35750   0.35894
     Eigenvalues ---    0.36273   0.38170   0.39376   0.41245   0.42465
     Eigenvalues ---    0.43611   0.44894   0.46018   0.46278   0.47370
     Eigenvalues ---    0.49835   0.53210   0.54587   0.59758
 En-DIIS/RFO-DIIS IScMMF=        0 using points:     5    4    3
 RFO step:  Lambda=-7.39972995D-07.
 DidBck=F Rises=F RFO-DIIS coefs:    0.97491    0.03482   -0.00973
 Iteration  1 RMS(Cart)=  0.00054923 RMS(Int)=  0.00000008
 Iteration  2 RMS(Cart)=  0.00000010 RMS(Int)=  0.00000003
 Variable       Old X    -DE/DX   Delta X   Delta X   Delta X     New X
                                 (Linear)    (Quad)   (Total)
    R1        2.61547  -0.00016  -0.00005  -0.00021  -0.00025   2.61522
    R2        2.66593  -0.00007   0.00002  -0.00017  -0.00015   2.66577
    R3        2.57539  -0.00028   0.00000  -0.00035  -0.00036   2.57503
    R4        2.04678  -0.00001   0.00002  -0.00008  -0.00006   2.04672
    R5        2.65605   0.00015  -0.00001   0.00033   0.00031   2.65637
    R6        2.63600   0.00003   0.00000   0.00009   0.00008   2.63609
    R7        2.05121  -0.00001   0.00000  -0.00003  -0.00002   2.05119
    R8        2.60519  -0.00005   0.00000  -0.00010  -0.00010   2.60509
    R9        2.04870  -0.00003   0.00000  -0.00008  -0.00007   2.04863
   R10        2.58454   0.00025  -0.00005   0.00067   0.00062   2.58516
   R11        2.59130   0.00013  -0.00001   0.00032   0.00031   2.59161
   R12        2.04117  -0.00009   0.00001  -0.00023  -0.00022   2.04095
   R13        2.66738  -0.00009   0.00003  -0.00037  -0.00034   2.66705
   R14        2.60007  -0.00017   0.00001  -0.00041  -0.00040   2.59966
   R15        1.89807  -0.00008   0.00003  -0.00022  -0.00018   1.89789
   R16        2.70285  -0.00015   0.00001  -0.00039  -0.00039   2.70247
   R17        2.04041   0.00002   0.00000   0.00005   0.00005   2.04046
   R18        2.65581   0.00009  -0.00001   0.00038   0.00038   2.65618
   R19        2.05979  -0.00003   0.00001  -0.00009  -0.00009   2.05970
   R20        2.07390  -0.00006   0.00001  -0.00018  -0.00018   2.07372
   R21        2.07390  -0.00006   0.00001  -0.00018  -0.00018   2.07372
    A1        2.11297   0.00007   0.00002   0.00025   0.00027   2.11324
    A2        2.17079  -0.00016  -0.00005  -0.00043  -0.00049   2.17030
    A3        1.99943   0.00009   0.00004   0.00018   0.00022   1.99965
    A4        2.12383   0.00002  -0.00002   0.00020   0.00017   2.12400
    A5        2.06776  -0.00010   0.00001  -0.00046  -0.00046   2.06731
    A6        2.09159   0.00008   0.00002   0.00027   0.00029   2.09188
    A7        2.12323  -0.00001   0.00000  -0.00010  -0.00010   2.12313
    A8        2.05789  -0.00003   0.00000  -0.00014  -0.00014   2.05775
    A9        2.10206   0.00003   0.00000   0.00024   0.00024   2.10230
   A10        1.91213  -0.00002   0.00004  -0.00005  -0.00001   1.91212
   A11        2.26651  -0.00004   0.00002  -0.00021  -0.00018   2.26633
   A12        2.10454   0.00006  -0.00006   0.00025   0.00019   2.10474
   A13        2.12428  -0.00004   0.00000  -0.00007  -0.00007   2.12421
   A14        2.28449  -0.00008   0.00000  -0.00027  -0.00027   2.28422
   A15        1.87441   0.00012   0.00000   0.00034   0.00034   1.87475
   A16        2.08770   0.00006  -0.00001   0.00033   0.00032   2.08802
   A17        2.33108  -0.00012   0.00002  -0.00052  -0.00050   2.33058
   A18        1.86441   0.00006  -0.00001   0.00019   0.00018   1.86459
   A19        1.86776  -0.00008   0.00000  -0.00025  -0.00025   1.86751
   A20        2.19415   0.00008  -0.00001   0.00044   0.00043   2.19458
   A21        2.22128   0.00000   0.00001  -0.00019  -0.00018   2.22109
   A22        2.11577   0.00003  -0.00001   0.00009   0.00008   2.11584
   A23        2.05632   0.00001  -0.00001   0.00003   0.00001   2.05633
   A24        2.11110  -0.00004   0.00002  -0.00012  -0.00009   2.11101
   A25        1.90607  -0.00008  -0.00002  -0.00024  -0.00026   1.90581
   A26        2.18662   0.00002   0.00002  -0.00004  -0.00002   2.18660
   A27        2.19049   0.00006   0.00001   0.00028   0.00028   2.19077
   A28        2.05311  -0.00015  -0.00018  -0.00013  -0.00032   2.05280
   A29        1.85419   0.00000   0.00002  -0.00018  -0.00016   1.85403
   A30        1.94778  -0.00004  -0.00002  -0.00024  -0.00026   1.94752
   A31        1.94778  -0.00004  -0.00002  -0.00024  -0.00026   1.94752
   A32        1.90483   0.00002   0.00002   0.00012   0.00014   1.90497
   A33        1.90483   0.00002   0.00002   0.00012   0.00014   1.90497
   A34        1.90322   0.00004  -0.00002   0.00042   0.00041   1.90363
    D1       -3.14159   0.00000   0.00000   0.00000   0.00000  -3.14159
    D2        0.00000   0.00000   0.00000   0.00000   0.00000   0.00000
    D3        0.00000   0.00000   0.00000   0.00000   0.00000   0.00000
    D4        3.14159   0.00000   0.00000   0.00000   0.00000   3.14159
    D5        0.00000   0.00000   0.00000   0.00000   0.00000   0.00000
    D6       -3.14159   0.00000   0.00000   0.00000   0.00000   3.14159
    D7       -3.14159   0.00000   0.00000   0.00000   0.00000  -3.14159
    D8        0.00000   0.00000   0.00000   0.00000   0.00000   0.00000
    D9        0.00000   0.00000   0.00000   0.00000   0.00000   0.00000
   D10       -3.14159   0.00000   0.00000   0.00000   0.00000  -3.14159
   D11        0.00000   0.00000   0.00000   0.00000   0.00000   0.00000
   D12       -3.14159   0.00000   0.00000   0.00000   0.00000  -3.14159
   D13        3.14159   0.00000   0.00000   0.00000   0.00000   3.14159
   D14        0.00000   0.00000   0.00000   0.00000   0.00000   0.00000
   D15       -3.14159   0.00000   0.00000   0.00000   0.00000  -3.14159
   D16        0.00000   0.00000   0.00000   0.00000   0.00000   0.00000
   D17        0.00000   0.00000   0.00000   0.00000   0.00000   0.00000
   D18        3.14159   0.00000   0.00000   0.00000   0.00000   3.14159
   D19        0.00000   0.00000   0.00000   0.00000   0.00000   0.00000
   D20        3.14159   0.00000   0.00000   0.00000   0.00000   3.14159
   D21        3.14159   0.00000   0.00000   0.00000   0.00000   3.14159
   D22        0.00000   0.00000   0.00000   0.00000   0.00000   0.00000
   D23        0.00000   0.00000   0.00000   0.00000   0.00000   0.00000
   D24       -3.14159   0.00000   0.00000   0.00000   0.00000  -3.14159
   D25       -3.14159   0.00000   0.00000   0.00000   0.00000  -3.14159
   D26        0.00000   0.00000   0.00000   0.00000   0.00000   0.00000
   D27        0.00000   0.00000   0.00000   0.00000   0.00000   0.00000
   D28        3.14159   0.00000   0.00000   0.00000   0.00000   3.14159
   D29        3.14159   0.00000   0.00000   0.00000   0.00000  -3.14159
   D30       -0.00001   0.00000   0.00000   0.00000   0.00000  -0.00001
   D31        0.00000   0.00000   0.00000   0.00000   0.00000   0.00000
   D32        3.14159   0.00000   0.00000   0.00000   0.00000   3.14159
   D33       -3.14159   0.00000   0.00000   0.00000   0.00000  -3.14159
   D34        0.00000   0.00000   0.00000   0.00000   0.00000   0.00000
   D35       -3.14159   0.00000   0.00000   0.00000   0.00000  -3.14159
   D36        0.00001   0.00000   0.00000   0.00000   0.00000   0.00001
   D37        0.00000   0.00000   0.00000   0.00000   0.00000   0.00000
   D38       -3.14159   0.00000   0.00000   0.00000   0.00000  -3.14159
   D39        3.14159   0.00000   0.00000   0.00000   0.00000   3.14159
   D40       -0.00001   0.00000   0.00000   0.00000   0.00000   0.00000
   D41        0.00000   0.00000   0.00000   0.00000   0.00000   0.00000
   D42        3.14159   0.00000   0.00000   0.00000   0.00000   3.14159
   D43        3.14159   0.00000   0.00000   0.00000   0.00000   3.14159
   D44       -1.06721   0.00000   0.00003  -0.00010  -0.00008  -1.06728
   D45        1.06720   0.00000  -0.00003   0.00010   0.00008   1.06728
         Item               Value     Threshold  Converged?
 Maximum Force            0.000278     0.000450     YES
 RMS     Force            0.000068     0.000300     YES
 Maximum Displacement     0.002459     0.001800     NO 
 RMS     Displacement     0.000549     0.001200     YES
 Predicted change in Energy=-6.126273D-07
 GradGradGradGradGradGradGradGradGradGradGradGradGradGradGradGradGradGrad

                          Input orientation:                          
 ---------------------------------------------------------------------
 Center     Atomic      Atomic             Coordinates (Angstroms)
 Number     Number       Type             X           Y           Z
 ---------------------------------------------------------------------
      1          6           0       -3.807332    1.301055   -0.012618
      2          6           0       -2.726172    2.163480   -0.062932
      3          6           0       -2.359852   -0.644865    0.145739
      4          1           0       -4.506223   -0.720038    0.126455
      5          6           0        0.768443    1.152843    0.050951
      6          6           0       -1.266898    0.220477    0.095349
      7          1           0        0.506136   -0.942260    0.200444
      8          1           0       -2.856754    3.235707   -0.142495
      9          6           0       -1.431650    1.618329   -0.008314
     10          6           0       -0.120635    2.189012   -0.034737
     11          1           0       -2.231977   -1.719794    0.225468
     12          6           0       -3.622188   -0.093562    0.091044
     13          7           0        0.084727   -0.033400    0.129423
     14          8           0       -5.110149    1.697984   -0.056541
     15          1           0        0.135481    3.235406   -0.107960
     16          1           0        1.848317    1.166654    0.062402
     17          6           0       -5.368383    3.075786   -0.159824
     18          1           0       -6.452980    3.181732   -0.180048
     19          1           0       -4.968888    3.627019    0.700851
     20          1           0       -4.948324    3.497237   -1.081857
 ---------------------------------------------------------------------
                    Distance matrix (angstroms):
                    1          2          3          4          5
     1  C    0.000000
     2  C    1.383913   0.000000
     3  C    2.430407   2.839812   0.000000
     4  H    2.143037   3.393983   2.147773   0.000000
     5  C    4.578616   3.639600   3.609289   5.597810   0.000000
     6  C    2.762809   2.435117   1.394957   3.373242   2.239171
     7  H    4.866608   4.490301   2.881896   5.017828   2.116745
     8  H    2.159478   1.083075   3.922859   4.294298   4.185426
     9  C    2.396779   1.405689   2.450987   3.865116   2.249577
    10  C    3.792189   2.605816   3.616286   5.265163   1.368009
    11  H    3.415254   3.925203   1.085441   2.486264   4.157525
    12  C    1.410667   2.433267   1.378557   1.084087   4.564293
    13  N    4.116925   3.572736   2.519945   4.642015   1.371422
    14  O    1.362649   2.429006   3.618562   2.499009   5.904792
    15  H    4.392787   3.056160   4.620341   6.102942   2.182421
    16  H    5.657744   4.683516   4.582274   6.629019   1.080023
    17  C    2.368168   2.796957   4.794567   3.903019   6.434498
    18  H    3.250297   3.865184   5.612725   4.371226   7.504579
    19  H    2.695989   2.784795   5.036289   4.409183   6.281790
    20  H    2.695988   2.784794   5.036288   4.409182   6.281788
                    6          7          8          9         10
     6  C    0.000000
     7  H    2.122887   0.000000
     8  H    3.416990   5.374202   0.000000
     9  C    1.411340   3.217951   2.159823   0.000000
    10  C    2.281660   3.202034   2.931472   1.430084   0.000000
    11  H    2.170935   2.846480   5.008266   3.440674   4.450196
    12  C    2.376138   4.216079   3.424100   2.781888   4.181727
    13  N    1.375683   1.004319   4.406054   2.246459   2.237910
    14  O    4.120276   6.211247   2.729426   3.679677   5.013665
    15  H    3.331336   4.205400   2.992434   2.254055   1.079766
    16  H    3.255902   2.503602   5.143992   3.311675   2.220681
    17  C    5.004007   7.126322   2.516775   4.200596   5.323615
    18  H    5.978322   8.098234   3.596828   5.261890   6.411334
    19  H    5.067139   7.148749   2.307698   4.129141   5.110236
    20  H    5.067137   7.148746   2.307697   4.129139   5.110235
                   11         12         13         14         15
    11  H    0.000000
    12  C    2.143685   0.000000
    13  N    2.867101   3.707602   0.000000
    14  O    4.477121   2.333548   5.478961   0.000000
    15  H    5.501821   5.024112   3.277807   5.466529   0.000000
    16  H    5.000697   5.613857   2.134214   6.979735   2.691201
    17  C    5.743090   3.627244   6.283877   1.405592   5.506422
    18  H    6.481225   4.337560   7.292083   2.004983   6.589074
    19  H    6.025370   4.003522   6.266118   2.077203   5.182868
    20  H    6.025368   4.003520   6.266116   2.077202   5.182867
                   16         17         18         19         20
    16  H    0.000000
    17  C    7.468262   0.000000
    18  H    8.545810   1.089947   0.000000
    19  H    7.275665   1.097367   1.782356   0.000000
    20  H    7.275664   1.097367   1.782356   1.787544   0.000000
 Stoichiometry    C9H9NO
 Framework group  C1[X(C9H9NO)]
 Deg. of freedom    54
 Full point group                 C1      NOp   1
 Largest Abelian subgroup         C1      NOp   1
 Largest concise Abelian subgroup C1      NOp   1
                         Standard orientation:                         
 ---------------------------------------------------------------------
 Center     Atomic      Atomic             Coordinates (Angstroms)
 Number     Number       Type             X           Y           Z
 ---------------------------------------------------------------------
      1          6           0       -1.427641    0.305372    0.000000
      2          6           0       -0.626322   -0.822946    0.000000
      3          6           0        0.501891    1.783137    0.000000
      4          1           0       -1.541230    2.445396   -0.000001
      5          6           0        3.013252   -0.809166    0.000000
      6          6           0        1.313745    0.648766    0.000001
      7          1           0        3.339920    1.282221    0.000003
      8          1           0       -1.048151   -1.820500    0.000000
      9          6           0        0.769085   -0.653243    0.000001
     10          6           0        1.872037   -1.563537    0.000000
     11          1           0        0.921864    2.784038    0.000000
     12          6           0       -0.864267    1.598659    0.000000
     13          7           0        2.683579    0.522042   -0.000001
     14          8           0       -2.790068    0.280806   -0.000001
     15          1           0        1.829184   -2.642453    0.000000
     16          1           0        4.047814   -1.119218   -0.000001
     17          6           0       -3.419078   -0.976188    0.000000
     18          1           0       -4.491271   -0.780263    0.000001
     19          1           0       -3.159429   -1.557540   -0.893771
     20          1           0       -3.159427   -1.557539    0.893772
 ---------------------------------------------------------------------
 Rotational constants (GHZ):      2.8719388      0.7619780      0.6045224
 Standard basis: 6-311++G(d,p) (5D, 7F)
 There are   316 symmetry adapted cartesian basis functions of A   symmetry.
 There are   305 symmetry adapted basis functions of A   symmetry.
   305 basis functions,   477 primitive gaussians,   316 cartesian basis functions
    39 alpha electrons       39 beta electrons
       nuclear repulsion energy       572.9616399716 Hartrees.
 NAtoms=   20 NActive=   20 NUniq=   20 SFac= 1.00D+00 NAtFMM=   60 NAOKFM=F Big=F
 Integral buffers will be    131072 words long.
 Raffenetti 2 integral format.
 Two-electron integral symmetry is turned on.
 One-electron integrals computed using PRISM.
 NBasis=   305 RedAO= T EigKep=  1.01D-06  NBF=   305
 NBsUse=   303 1.00D-06 EigRej=  8.14D-07 NBFU=   303
 Initial guess from the checkpoint file:  "opt_203.chk"
 B after Tr=     0.000000    0.000000    0.000000
         Rot=    1.000000    0.000000    0.000000    0.000043 Ang=   0.00 deg.
 Initial guess <Sx>= 0.0000 <Sy>= 0.0000 <Sz>= 0.0000 <S**2>= 0.0000 S= 0.0000
 Keep R1 and R2 ints in memory in canonical form, NReq=2193923028.
 Requested convergence on RMS density matrix=1.00D-08 within 128 cycles.
 Requested convergence on MAX density matrix=1.00D-06.
 Requested convergence on             energy=1.00D-06.
 No special actions if energy rises.
 SCF Done:  E(UPBE1PBE) =  -477.908210989     A.U. after    9 cycles
            NFock=  9  Conv=0.45D-08     -V/T= 2.0039
 <Sx>= 0.0000 <Sy>= 0.0000 <Sz>= 0.0000 <S**2>= 0.0000 S= 0.0000
 <L.S>= 0.000000000000E+00
 Annihilation of the first spin contaminant:
 S**2 before annihilation     0.0000,   after     0.0000
 Calling FoFJK, ICntrl=      2127 FMM=F ISym2X=0 I1Cent= 0 IOpClX= 1 NMat=1 NMatS=1 NMatT=0.
 ***** Axes restored to original set *****
 -------------------------------------------------------------------
 Center     Atomic                   Forces (Hartrees/Bohr)
 Number     Number              X              Y              Z
 -------------------------------------------------------------------
      1        6          -0.000084811    0.000049521   -0.000004575
      2        6          -0.000049135    0.000046797   -0.000003998
      3        6          -0.000064729   -0.000026638    0.000001165
      4        1           0.000005096   -0.000015128    0.000001157
      5        6           0.000030900    0.000006006   -0.000000013
      6        6           0.000042111    0.000051176   -0.000003141
      7        1           0.000015881   -0.000001729    0.000000345
      8        1          -0.000002300   -0.000015360    0.000001091
      9        6           0.000063958   -0.000081733    0.000006753
     10        6           0.000010772   -0.000016099    0.000001186
     11        1           0.000005770    0.000001235   -0.000000022
     12        6           0.000031350    0.000005468   -0.000000041
     13        7          -0.000054750    0.000019835   -0.000002184
     14        8           0.000070330   -0.000035086    0.000003354
     15        1          -0.000001729   -0.000005408    0.000000418
     16        1          -0.000006678    0.000026509   -0.000002034
     17        6          -0.000009246    0.000013330   -0.000001080
     18        1           0.000004122   -0.000003321    0.000000286
     19        1          -0.000003357   -0.000010246   -0.000006934
     20        1          -0.000003553   -0.000009130    0.000008270
 -------------------------------------------------------------------
 Cartesian Forces:  Max     0.000084811 RMS     0.000028450

 GradGradGradGradGradGradGradGradGradGradGradGradGradGradGradGradGradGrad
 Berny optimization.
 Using GEDIIS/GDIIS optimizer.
 FormGI is forming the generalized inverse of G from B-inverse, IUseBI=4.
 Internal  Forces:  Max     0.000071990 RMS     0.000014382
 Search for a local minimum.
 Step number   6 out of a maximum of  110
 All quantities printed in internal units (Hartrees-Bohrs-Radians)
 Mixed Optimization -- En-DIIS/RFO-DIIS
 Swapping is turned off.
 Update second derivatives using D2CorX and points    1    2    3    4    5
                                                      6
 DE= -6.59D-07 DEPred=-6.13D-07 R= 1.08D+00
 Trust test= 1.08D+00 RLast= 1.97D-03 DXMaxT set to 5.05D-01
 ITU=  0  1  1  1  1  0
     Eigenvalues ---    0.01881   0.01946   0.01949   0.01965   0.02017
     Eigenvalues ---    0.02074   0.02102   0.02248   0.02255   0.02285
     Eigenvalues ---    0.02312   0.02332   0.02338   0.02374   0.02388
     Eigenvalues ---    0.10299   0.10807   0.12164   0.14973   0.16000
     Eigenvalues ---    0.16000   0.16000   0.16013   0.16041   0.16095
     Eigenvalues ---    0.16193   0.21779   0.23106   0.23698   0.24174
     Eigenvalues ---    0.24677   0.27624   0.31740   0.32503   0.32738
     Eigenvalues ---    0.33670   0.35674   0.35685   0.35731   0.35925
     Eigenvalues ---    0.36383   0.36859   0.39712   0.40879   0.42519
     Eigenvalues ---    0.43118   0.45116   0.45971   0.46440   0.47270
     Eigenvalues ---    0.51701   0.53053   0.54929   0.57557
 En-DIIS/RFO-DIIS IScMMF=        0 using points:     6    5    4    3
 RFO step:  Lambda=-3.47663933D-08.
 DidBck=F Rises=F RFO-DIIS coefs:    1.06139   -0.05924   -0.00880    0.00665
 Iteration  1 RMS(Cart)=  0.00005803 RMS(Int)=  0.00000002
 Iteration  2 RMS(Cart)=  0.00000000 RMS(Int)=  0.00000002
 Variable       Old X    -DE/DX   Delta X   Delta X   Delta X     New X
                                 (Linear)    (Quad)   (Total)
    R1        2.61522   0.00000   0.00000   0.00001   0.00001   2.61523
    R2        2.66577   0.00001  -0.00003   0.00005   0.00003   2.66580
    R3        2.57503  -0.00007  -0.00004  -0.00011  -0.00016   2.57487
    R4        2.04672  -0.00001  -0.00002  -0.00003  -0.00005   2.04667
    R5        2.65637   0.00007   0.00003   0.00014   0.00017   2.65654
    R6        2.63609   0.00004   0.00000   0.00009   0.00010   2.63618
    R7        2.05119   0.00000   0.00000   0.00000   0.00000   2.05118
    R8        2.60509  -0.00002  -0.00001  -0.00004  -0.00005   2.60505
    R9        2.04863   0.00001  -0.00001   0.00002   0.00001   2.04864
   R10        2.58516  -0.00003   0.00006  -0.00009  -0.00003   2.58513
   R11        2.59161   0.00002   0.00002   0.00002   0.00004   2.59165
   R12        2.04095  -0.00001  -0.00002  -0.00001  -0.00003   2.04092
   R13        2.66705  -0.00004  -0.00002  -0.00009  -0.00012   2.66693
   R14        2.59966  -0.00001  -0.00002  -0.00002  -0.00004   2.59962
   R15        1.89789   0.00001  -0.00003   0.00006   0.00003   1.89791
   R16        2.70247   0.00000  -0.00002  -0.00001  -0.00003   2.70244
   R17        2.04046  -0.00001   0.00000  -0.00002  -0.00002   2.04044
   R18        2.65618   0.00000  -0.00001   0.00002   0.00001   2.65620
   R19        2.05970  -0.00001  -0.00001  -0.00001  -0.00002   2.05968
   R20        2.07372  -0.00001  -0.00001  -0.00002  -0.00004   2.07369
   R21        2.07372  -0.00001  -0.00001  -0.00002  -0.00004   2.07369
    A1        2.11324  -0.00001   0.00000  -0.00005  -0.00005   2.11319
    A2        2.17030   0.00002  -0.00001   0.00008   0.00007   2.17037
    A3        1.99965  -0.00001   0.00001  -0.00003  -0.00002   1.99963
    A4        2.12400   0.00000   0.00000   0.00000   0.00000   2.12400
    A5        2.06731  -0.00001  -0.00003  -0.00001  -0.00004   2.06727
    A6        2.09188   0.00001   0.00003   0.00001   0.00004   2.09192
    A7        2.12313   0.00000   0.00000  -0.00002  -0.00002   2.12311
    A8        2.05775   0.00000  -0.00001  -0.00001  -0.00002   2.05774
    A9        2.10230   0.00000   0.00001   0.00003   0.00004   2.10234
   A10        1.91212  -0.00002   0.00000  -0.00009  -0.00009   1.91203
   A11        2.26633  -0.00001  -0.00006  -0.00007  -0.00013   2.26620
   A12        2.10474   0.00003   0.00006   0.00016   0.00021   2.10495
   A13        2.12421  -0.00001  -0.00001  -0.00002  -0.00003   2.12418
   A14        2.28422   0.00001  -0.00002   0.00006   0.00004   2.28426
   A15        1.87475  -0.00001   0.00003  -0.00004  -0.00001   1.87474
   A16        2.08802   0.00001   0.00002   0.00004   0.00006   2.08808
   A17        2.33058  -0.00001  -0.00003  -0.00004  -0.00008   2.33050
   A18        1.86459   0.00001   0.00001   0.00001   0.00002   1.86461
   A19        1.86751   0.00001  -0.00002   0.00006   0.00004   1.86755
   A20        2.19458  -0.00001   0.00002  -0.00004  -0.00002   2.19457
   A21        2.22109   0.00000   0.00000  -0.00002  -0.00002   2.22107
   A22        2.11584   0.00002   0.00002   0.00006   0.00008   2.11592
   A23        2.05633   0.00000   0.00002   0.00003   0.00005   2.05639
   A24        2.11101  -0.00002  -0.00004  -0.00009  -0.00013   2.11088
   A25        1.90581   0.00001  -0.00002   0.00006   0.00004   1.90585
   A26        2.18660  -0.00002   0.00000  -0.00010  -0.00010   2.18651
   A27        2.19077   0.00000   0.00002   0.00004   0.00005   2.19082
   A28        2.05280   0.00000   0.00007  -0.00006   0.00002   2.05281
   A29        1.85403   0.00000   0.00000   0.00003   0.00003   1.85406
   A30        1.94752  -0.00001   0.00001  -0.00006  -0.00005   1.94747
   A31        1.94752  -0.00001   0.00001  -0.00006  -0.00005   1.94747
   A32        1.90497   0.00000  -0.00001   0.00004   0.00002   1.90499
   A33        1.90497   0.00000  -0.00001   0.00004   0.00002   1.90499
   A34        1.90363   0.00000   0.00001   0.00002   0.00003   1.90365
    D1       -3.14159   0.00000   0.00000   0.00000   0.00000  -3.14159
    D2        0.00000   0.00000   0.00000   0.00000   0.00000   0.00000
    D3        0.00000   0.00000   0.00000   0.00000   0.00000   0.00000
    D4        3.14159   0.00000   0.00000   0.00000   0.00000  -3.14159
    D5        0.00000   0.00000   0.00000   0.00000   0.00000   0.00000
    D6        3.14159   0.00000   0.00000   0.00000   0.00000   3.14159
    D7       -3.14159   0.00000   0.00000   0.00000   0.00000  -3.14159
    D8        0.00000   0.00000   0.00000   0.00000   0.00000   0.00000
    D9        0.00000   0.00000   0.00000   0.00000   0.00000   0.00000
   D10       -3.14159   0.00000   0.00000   0.00000   0.00000  -3.14159
   D11        0.00000   0.00000   0.00000   0.00000   0.00000   0.00000
   D12       -3.14159   0.00000   0.00000   0.00000   0.00000  -3.14159
   D13        3.14159   0.00000   0.00000   0.00000   0.00000   3.14159
   D14        0.00000   0.00000   0.00000   0.00000   0.00000   0.00000
   D15       -3.14159   0.00000   0.00000   0.00000   0.00000  -3.14159
   D16        0.00000   0.00000   0.00000   0.00000   0.00000   0.00000
   D17        0.00000   0.00000   0.00000   0.00000   0.00000   0.00000
   D18        3.14159   0.00000   0.00000   0.00000   0.00000   3.14159
   D19        0.00000   0.00000   0.00000   0.00000   0.00000   0.00000
   D20        3.14159   0.00000   0.00000   0.00000   0.00000   3.14159
   D21        3.14159   0.00000   0.00000   0.00000   0.00000   3.14159
   D22        0.00000   0.00000   0.00000   0.00000   0.00000   0.00000
   D23        0.00000   0.00000   0.00000   0.00000   0.00000   0.00000
   D24       -3.14159   0.00000   0.00000   0.00000   0.00000   3.14159
   D25       -3.14159   0.00000   0.00000   0.00000   0.00000  -3.14159
   D26        0.00000   0.00000   0.00000   0.00000   0.00000   0.00000
   D27        0.00000   0.00000   0.00000   0.00000   0.00000   0.00000
   D28        3.14159   0.00000   0.00000   0.00000   0.00000   3.14159
   D29       -3.14159   0.00000   0.00000   0.00000   0.00000  -3.14159
   D30       -0.00001   0.00000   0.00000   0.00000   0.00000  -0.00001
   D31        0.00000   0.00000   0.00000   0.00000   0.00000   0.00000
   D32        3.14159   0.00000   0.00000   0.00000   0.00000   3.14159
   D33       -3.14159   0.00000   0.00000   0.00000   0.00000  -3.14159
   D34        0.00000   0.00000   0.00000   0.00000   0.00000   0.00000
   D35       -3.14159   0.00000   0.00000   0.00000   0.00000  -3.14159
   D36        0.00001   0.00000   0.00000   0.00000   0.00000   0.00001
   D37        0.00000   0.00000   0.00000   0.00000   0.00000   0.00000
   D38       -3.14159   0.00000   0.00000   0.00000   0.00000  -3.14159
   D39        3.14159   0.00000   0.00000   0.00000   0.00000   3.14159
   D40        0.00000   0.00000   0.00000   0.00000   0.00000   0.00000
   D41        0.00000   0.00000   0.00000   0.00000   0.00000   0.00000
   D42        3.14159   0.00000   0.00000   0.00000   0.00000   3.14159
   D43        3.14159   0.00000   0.00000   0.00000   0.00000   3.14159
   D44       -1.06728   0.00000  -0.00001   0.00003   0.00002  -1.06726
   D45        1.06728   0.00000   0.00001  -0.00003  -0.00002   1.06726
         Item               Value     Threshold  Converged?
 Maximum Force            0.000072     0.000450     YES
 RMS     Force            0.000014     0.000300     YES
 Maximum Displacement     0.000291     0.001800     YES
 RMS     Displacement     0.000058     0.001200     YES
 Predicted change in Energy=-3.091127D-08
 Optimization completed.
    -- Stationary point found.
                           ----------------------------
                           !   Optimized Parameters   !
                           ! (Angstroms and Degrees)  !
 --------------------------                            --------------------------
 ! Name  Definition              Value          Derivative Info.                !
 --------------------------------------------------------------------------------
 ! R1    R(1,2)                  1.3839         -DE/DX =    0.0                 !
 ! R2    R(1,12)                 1.4107         -DE/DX =    0.0                 !
 ! R3    R(1,14)                 1.3626         -DE/DX =   -0.0001              !
 ! R4    R(2,8)                  1.0831         -DE/DX =    0.0                 !
 ! R5    R(2,9)                  1.4057         -DE/DX =    0.0001              !
 ! R6    R(3,6)                  1.395          -DE/DX =    0.0                 !
 ! R7    R(3,11)                 1.0854         -DE/DX =    0.0                 !
 ! R8    R(3,12)                 1.3786         -DE/DX =    0.0                 !
 ! R9    R(4,12)                 1.0841         -DE/DX =    0.0                 !
 ! R10   R(5,10)                 1.368          -DE/DX =    0.0                 !
 ! R11   R(5,13)                 1.3714         -DE/DX =    0.0                 !
 ! R12   R(5,16)                 1.08           -DE/DX =    0.0                 !
 ! R13   R(6,9)                  1.4113         -DE/DX =    0.0                 !
 ! R14   R(6,13)                 1.3757         -DE/DX =    0.0                 !
 ! R15   R(7,13)                 1.0043         -DE/DX =    0.0                 !
 ! R16   R(9,10)                 1.4301         -DE/DX =    0.0                 !
 ! R17   R(10,15)                1.0798         -DE/DX =    0.0                 !
 ! R18   R(14,17)                1.4056         -DE/DX =    0.0                 !
 ! R19   R(17,18)                1.0899         -DE/DX =    0.0                 !
 ! R20   R(17,19)                1.0974         -DE/DX =    0.0                 !
 ! R21   R(17,20)                1.0974         -DE/DX =    0.0                 !
 ! A1    A(2,1,12)             121.0795         -DE/DX =    0.0                 !
 ! A2    A(2,1,14)             124.349          -DE/DX =    0.0                 !
 ! A3    A(12,1,14)            114.5716         -DE/DX =    0.0                 !
 ! A4    A(1,2,8)              121.6964         -DE/DX =    0.0                 !
 ! A5    A(1,2,9)              118.4479         -DE/DX =    0.0                 !
 ! A6    A(8,2,9)              119.8557         -DE/DX =    0.0                 !
 ! A7    A(6,3,11)             121.6465         -DE/DX =    0.0                 !
 ! A8    A(6,3,12)             117.9004         -DE/DX =    0.0                 !
 ! A9    A(11,3,12)            120.453          -DE/DX =    0.0                 !
 ! A10   A(10,5,13)            109.5563         -DE/DX =    0.0                 !
 ! A11   A(10,5,16)            129.8511         -DE/DX =    0.0                 !
 ! A12   A(13,5,16)            120.5926         -DE/DX =    0.0                 !
 ! A13   A(3,6,9)              121.7085         -DE/DX =    0.0                 !
 ! A14   A(3,6,13)             130.8762         -DE/DX =    0.0                 !
 ! A15   A(9,6,13)             107.4152         -DE/DX =    0.0                 !
 ! A16   A(2,9,6)              119.6347         -DE/DX =    0.0                 !
 ! A17   A(2,9,10)             133.5322         -DE/DX =    0.0                 !
 ! A18   A(6,9,10)             106.8331         -DE/DX =    0.0                 !
 ! A19   A(5,10,9)             107.0006         -DE/DX =    0.0                 !
 ! A20   A(5,10,15)            125.7402         -DE/DX =    0.0                 !
 ! A21   A(9,10,15)            127.2592         -DE/DX =    0.0                 !
 ! A22   A(1,12,3)             121.229          -DE/DX =    0.0                 !
 ! A23   A(1,12,4)             117.8192         -DE/DX =    0.0                 !
 ! A24   A(3,12,4)             120.9518         -DE/DX =    0.0                 !
 ! A25   A(5,13,6)             109.1948         -DE/DX =    0.0                 !
 ! A26   A(5,13,7)             125.2832         -DE/DX =    0.0                 !
 ! A27   A(6,13,7)             125.522          -DE/DX =    0.0                 !
 ! A28   A(1,14,17)            117.6167         -DE/DX =    0.0                 !
 ! A29   A(14,17,18)           106.2281         -DE/DX =    0.0                 !
 ! A30   A(14,17,19)           111.5848         -DE/DX =    0.0                 !
 ! A31   A(14,17,20)           111.5848         -DE/DX =    0.0                 !
 ! A32   A(18,17,19)           109.1466         -DE/DX =    0.0                 !
 ! A33   A(18,17,20)           109.1466         -DE/DX =    0.0                 !
 ! A34   A(19,17,20)           109.0698         -DE/DX =    0.0                 !
 ! D1    D(12,1,2,8)          -180.0            -DE/DX =    0.0                 !
 ! D2    D(12,1,2,9)             0.0            -DE/DX =    0.0                 !
 ! D3    D(14,1,2,8)             0.0            -DE/DX =    0.0                 !
 ! D4    D(14,1,2,9)          -180.0            -DE/DX =    0.0                 !
 ! D5    D(2,1,12,3)             0.0            -DE/DX =    0.0                 !
 ! D6    D(2,1,12,4)           180.0            -DE/DX =    0.0                 !
 ! D7    D(14,1,12,3)         -180.0            -DE/DX =    0.0                 !
 ! D8    D(14,1,12,4)            0.0            -DE/DX =    0.0                 !
 ! D9    D(2,1,14,17)            0.0001         -DE/DX =    0.0                 !
 ! D10   D(12,1,14,17)        -179.9999         -DE/DX =    0.0                 !
 ! D11   D(1,2,9,6)              0.0            -DE/DX =    0.0                 !
 ! D12   D(1,2,9,10)          -179.9999         -DE/DX =    0.0                 !
 ! D13   D(8,2,9,6)            180.0            -DE/DX =    0.0                 !
 ! D14   D(8,2,9,10)             0.0001         -DE/DX =    0.0                 !
 ! D15   D(11,3,6,9)          -180.0            -DE/DX =    0.0                 !
 ! D16   D(11,3,6,13)           -0.0001         -DE/DX =    0.0                 !
 ! D17   D(12,3,6,9)             0.0            -DE/DX =    0.0                 !
 ! D18   D(12,3,6,13)          179.9999         -DE/DX =    0.0                 !
 ! D19   D(6,3,12,1)             0.0            -DE/DX =    0.0                 !
 ! D20   D(6,3,12,4)           180.0            -DE/DX =    0.0                 !
 ! D21   D(11,3,12,1)          180.0            -DE/DX =    0.0                 !
 ! D22   D(11,3,12,4)            0.0            -DE/DX =    0.0                 !
 ! D23   D(13,5,10,9)           -0.0001         -DE/DX =    0.0                 !
 ! D24   D(13,5,10,15)         180.0            -DE/DX =    0.0                 !
 ! D25   D(16,5,10,9)         -180.0            -DE/DX =    0.0                 !
 ! D26   D(16,5,10,15)           0.0001         -DE/DX =    0.0                 !
 ! D27   D(10,5,13,6)            0.0001         -DE/DX =    0.0                 !
 ! D28   D(10,5,13,7)          179.9997         -DE/DX =    0.0                 !
 ! D29   D(16,5,13,6)         -180.0            -DE/DX =    0.0                 !
 ! D30   D(16,5,13,7)           -0.0004         -DE/DX =    0.0                 !
 ! D31   D(3,6,9,2)              0.0            -DE/DX =    0.0                 !
 ! D32   D(3,6,9,10)           179.9999         -DE/DX =    0.0                 !
 ! D33   D(13,6,9,2)          -179.9999         -DE/DX =    0.0                 !
 ! D34   D(13,6,9,10)            0.0            -DE/DX =    0.0                 !
 ! D35   D(3,6,13,5)          -179.9999         -DE/DX =    0.0                 !
 ! D36   D(3,6,13,7)             0.0004         -DE/DX =    0.0                 !
 ! D37   D(9,6,13,5)            -0.0001         -DE/DX =    0.0                 !
 ! D38   D(9,6,13,7)          -179.9997         -DE/DX =    0.0                 !
 ! D39   D(2,9,10,5)           179.9999         -DE/DX =    0.0                 !
 ! D40   D(2,9,10,15)           -0.0001         -DE/DX =    0.0                 !
 ! D41   D(6,9,10,5)             0.0            -DE/DX =    0.0                 !
 ! D42   D(6,9,10,15)          179.9999         -DE/DX =    0.0                 !
 ! D43   D(1,14,17,18)         179.9999         -DE/DX =    0.0                 !
 ! D44   D(1,14,17,19)         -61.1508         -DE/DX =    0.0                 !
 ! D45   D(1,14,17,20)          61.1506         -DE/DX =    0.0                 !
 --------------------------------------------------------------------------------
 GradGradGradGradGradGradGradGradGradGradGradGradGradGradGradGradGradGrad

                          Input orientation:                          
 ---------------------------------------------------------------------
 Center     Atomic      Atomic             Coordinates (Angstroms)
 Number     Number       Type             X           Y           Z
 ---------------------------------------------------------------------
      1          6           0       -3.807332    1.301055   -0.012618
      2          6           0       -2.726172    2.163480   -0.062932
      3          6           0       -2.359852   -0.644865    0.145739
      4          1           0       -4.506223   -0.720038    0.126455
      5          6           0        0.768443    1.152843    0.050951
      6          6           0       -1.266898    0.220477    0.095349
      7          1           0        0.506136   -0.942260    0.200444
      8          1           0       -2.856754    3.235707   -0.142495
      9          6           0       -1.431650    1.618329   -0.008314
     10          6           0       -0.120635    2.189012   -0.034737
     11          1           0       -2.231977   -1.719794    0.225468
     12          6           0       -3.622188   -0.093562    0.091044
     13          7           0        0.084727   -0.033400    0.129423
     14          8           0       -5.110149    1.697984   -0.056541
     15          1           0        0.135481    3.235406   -0.107960
     16          1           0        1.848317    1.166654    0.062402
     17          6           0       -5.368383    3.075786   -0.159824
     18          1           0       -6.452980    3.181732   -0.180048
     19          1           0       -4.968888    3.627019    0.700851
     20          1           0       -4.948324    3.497237   -1.081857
 ---------------------------------------------------------------------
                    Distance matrix (angstroms):
                    1          2          3          4          5
     1  C    0.000000
     2  C    1.383913   0.000000
     3  C    2.430407   2.839812   0.000000
     4  H    2.143037   3.393983   2.147773   0.000000
     5  C    4.578616   3.639600   3.609289   5.597810   0.000000
     6  C    2.762809   2.435117   1.394957   3.373242   2.239171
     7  H    4.866608   4.490301   2.881896   5.017828   2.116745
     8  H    2.159478   1.083075   3.922859   4.294298   4.185426
     9  C    2.396779   1.405689   2.450987   3.865116   2.249577
    10  C    3.792189   2.605816   3.616286   5.265163   1.368009
    11  H    3.415254   3.925203   1.085441   2.486264   4.157525
    12  C    1.410667   2.433267   1.378557   1.084087   4.564293
    13  N    4.116925   3.572736   2.519945   4.642015   1.371422
    14  O    1.362649   2.429006   3.618562   2.499009   5.904792
    15  H    4.392787   3.056160   4.620341   6.102942   2.182421
    16  H    5.657744   4.683516   4.582274   6.629019   1.080023
    17  C    2.368168   2.796957   4.794567   3.903019   6.434498
    18  H    3.250297   3.865184   5.612725   4.371226   7.504579
    19  H    2.695989   2.784795   5.036289   4.409183   6.281790
    20  H    2.695988   2.784794   5.036288   4.409182   6.281788
                    6          7          8          9         10
     6  C    0.000000
     7  H    2.122887   0.000000
     8  H    3.416990   5.374202   0.000000
     9  C    1.411340   3.217951   2.159823   0.000000
    10  C    2.281660   3.202034   2.931472   1.430084   0.000000
    11  H    2.170935   2.846480   5.008266   3.440674   4.450196
    12  C    2.376138   4.216079   3.424100   2.781888   4.181727
    13  N    1.375683   1.004319   4.406054   2.246459   2.237910
    14  O    4.120276   6.211247   2.729426   3.679677   5.013665
    15  H    3.331336   4.205400   2.992434   2.254055   1.079766
    16  H    3.255902   2.503602   5.143992   3.311675   2.220681
    17  C    5.004007   7.126322   2.516775   4.200596   5.323615
    18  H    5.978322   8.098234   3.596828   5.261890   6.411334
    19  H    5.067139   7.148749   2.307698   4.129141   5.110236
    20  H    5.067137   7.148746   2.307697   4.129139   5.110235
                   11         12         13         14         15
    11  H    0.000000
    12  C    2.143685   0.000000
    13  N    2.867101   3.707602   0.000000
    14  O    4.477121   2.333548   5.478961   0.000000
    15  H    5.501821   5.024112   3.277807   5.466529   0.000000
    16  H    5.000697   5.613857   2.134214   6.979735   2.691201
    17  C    5.743090   3.627244   6.283877   1.405592   5.506422
    18  H    6.481225   4.337560   7.292083   2.004983   6.589074
    19  H    6.025370   4.003522   6.266118   2.077203   5.182868
    20  H    6.025368   4.003520   6.266116   2.077202   5.182867
                   16         17         18         19         20
    16  H    0.000000
    17  C    7.468262   0.000000
    18  H    8.545810   1.089947   0.000000
    19  H    7.275665   1.097367   1.782356   0.000000
    20  H    7.275664   1.097367   1.782356   1.787544   0.000000
 Stoichiometry    C9H9NO
 Framework group  C1[X(C9H9NO)]
 Deg. of freedom    54
 Full point group                 C1      NOp   1
 Largest Abelian subgroup         C1      NOp   1
 Largest concise Abelian subgroup C1      NOp   1
                         Standard orientation:                         
 ---------------------------------------------------------------------
 Center     Atomic      Atomic             Coordinates (Angstroms)
 Number     Number       Type             X           Y           Z
 ---------------------------------------------------------------------
      1          6           0       -1.427641    0.305372    0.000000
      2          6           0       -0.626322   -0.822946    0.000000
      3          6           0        0.501891    1.783137    0.000000
      4          1           0       -1.541230    2.445396   -0.000001
      5          6           0        3.013252   -0.809166    0.000000
      6          6           0        1.313745    0.648766    0.000001
      7          1           0        3.339920    1.282221    0.000003
      8          1           0       -1.048151   -1.820500    0.000000
      9          6           0        0.769085   -0.653243    0.000001
     10          6           0        1.872037   -1.563537    0.000000
     11          1           0        0.921864    2.784038    0.000000
     12          6           0       -0.864267    1.598659    0.000000
     13          7           0        2.683579    0.522042   -0.000001
     14          8           0       -2.790068    0.280806   -0.000001
     15          1           0        1.829184   -2.642453    0.000000
     16          1           0        4.047814   -1.119218   -0.000001
     17          6           0       -3.419078   -0.976188    0.000000
     18          1           0       -4.491271   -0.780263    0.000001
     19          1           0       -3.159429   -1.557540   -0.893771
     20          1           0       -3.159427   -1.557539    0.893772
 ---------------------------------------------------------------------
 Rotational constants (GHZ):      2.8719388      0.7619780      0.6045224

 **********************************************************************

            Population analysis using the SCF density.

 **********************************************************************

 Orbital symmetries:
 Alpha Orbitals:
       Occupied  (A) (A) (A) (A) (A) (A) (A) (A) (A) (A) (A) (A)
                 (A) (A) (A) (A) (A) (A) (A) (A) (A) (A) (A) (A)
                 (A) (A) (A) (A) (A) (A) (A) (A) (A) (A) (A) (A)
                 (A) (A) (A)
       Virtual   (A) (A) (A) (A) (A) (A) (A) (A) (A) (A) (A) (A)
                 (A) (A) (A) (A) (A) (A) (A) (A) (A) (A) (A) (A)
                 (A) (A) (A) (A) (A) (A) (A) (A) (A) (A) (A) (A)
                 (A) (A) (A) (A) (A) (A) (A) (A) (A) (A) (A) (A)
                 (A) (A) (A) (A) (A) (A) (A) (A) (A) (A) (A) (A)
                 (A) (A) (A) (A) (A) (A) (A) (A) (A) (A) (A) (A)
                 (A) (A) (A) (A) (A) (A) (A) (A) (A) (A) (A) (A)
                 (A) (A) (A) (A) (A) (A) (A) (A) (A) (A) (A) (A)
                 (A) (A) (A) (A) (A) (A) (A) (A) (A) (A) (A) (A)
                 (A) (A) (A) (A) (A) (A) (A) (A) (A) (A) (A) (A)
                 (A) (A) (A) (A) (A) (A) (A) (A) (A) (A) (A) (A)
                 (A) (A) (A) (A) (A) (A) (A) (A) (A) (A) (A) (A)
                 (A) (A) (A) (A) (A) (A) (A) (A) (A) (A) (A) (A)
                 (A) (A) (A) (A) (A) (A) (A) (A) (A) (A) (A) (A)
                 (A) (A) (A) (A) (A) (A) (A) (A) (A) (A) (A) (A)
                 (A) (A) (A) (A) (A) (A) (A) (A) (A) (A) (A) (A)
                 (A) (A) (A) (A) (A) (A) (A) (A) (A) (A) (A) (A)
                 (A) (A) (A) (A) (A) (A) (A) (A) (A) (A) (A) (A)
                 (A) (A) (A) (A) (A) (A) (A) (A) (A) (A) (A) (A)
                 (A) (A) (A) (A) (A) (A) (A) (A) (A) (A) (A) (A)
                 (A) (A) (A) (A) (A) (A) (A) (A) (A) (A) (A) (A)
                 (A) (A) (A) (A) (A) (A) (A) (A) (A) (A) (A) (A)
 Beta  Orbitals:
       Occupied  (A) (A) (A) (A) (A) (A) (A) (A) (A) (A) (A) (A)
                 (A) (A) (A) (A) (A) (A) (A) (A) (A) (A) (A) (A)
                 (A) (A) (A) (A) (A) (A) (A) (A) (A) (A) (A) (A)
                 (A) (A) (A)
       Virtual   (A) (A) (A) (A) (A) (A) (A) (A) (A) (A) (A) (A)
                 (A) (A) (A) (A) (A) (A) (A) (A) (A) (A) (A) (A)
                 (A) (A) (A) (A) (A) (A) (A) (A) (A) (A) (A) (A)
                 (A) (A) (A) (A) (A) (A) (A) (A) (A) (A) (A) (A)
                 (A) (A) (A) (A) (A) (A) (A) (A) (A) (A) (A) (A)
                 (A) (A) (A) (A) (A) (A) (A) (A) (A) (A) (A) (A)
                 (A) (A) (A) (A) (A) (A) (A) (A) (A) (A) (A) (A)
                 (A) (A) (A) (A) (A) (A) (A) (A) (A) (A) (A) (A)
                 (A) (A) (A) (A) (A) (A) (A) (A) (A) (A) (A) (A)
                 (A) (A) (A) (A) (A) (A) (A) (A) (A) (A) (A) (A)
                 (A) (A) (A) (A) (A) (A) (A) (A) (A) (A) (A) (A)
                 (A) (A) (A) (A) (A) (A) (A) (A) (A) (A) (A) (A)
                 (A) (A) (A) (A) (A) (A) (A) (A) (A) (A) (A) (A)
                 (A) (A) (A) (A) (A) (A) (A) (A) (A) (A) (A) (A)
                 (A) (A) (A) (A) (A) (A) (A) (A) (A) (A) (A) (A)
                 (A) (A) (A) (A) (A) (A) (A) (A) (A) (A) (A) (A)
                 (A) (A) (A) (A) (A) (A) (A) (A) (A) (A) (A) (A)
                 (A) (A) (A) (A) (A) (A) (A) (A) (A) (A) (A) (A)
                 (A) (A) (A) (A) (A) (A) (A) (A) (A) (A) (A) (A)
                 (A) (A) (A) (A) (A) (A) (A) (A) (A) (A) (A) (A)
                 (A) (A) (A) (A) (A) (A) (A) (A) (A) (A) (A) (A)
                 (A) (A) (A) (A) (A) (A) (A) (A) (A) (A) (A) (A)
 The electronic state is 1-A.
 Alpha  occ. eigenvalues --  -19.22802 -14.42719 -10.27472 -10.26726 -10.25505
 Alpha  occ. eigenvalues --  -10.25062 -10.22757 -10.22286 -10.21663 -10.21611
 Alpha  occ. eigenvalues --  -10.21007  -1.09524  -1.01374  -0.86854  -0.80953
 Alpha  occ. eigenvalues --   -0.77123  -0.74688  -0.71543  -0.63609  -0.61744
 Alpha  occ. eigenvalues --   -0.60116  -0.56328  -0.53183  -0.50672  -0.48108
 Alpha  occ. eigenvalues --   -0.47629  -0.45644  -0.44029  -0.43720  -0.41874
 Alpha  occ. eigenvalues --   -0.40867  -0.40532  -0.37454  -0.36443  -0.33684
 Alpha  occ. eigenvalues --   -0.31233  -0.29337  -0.22014  -0.21312
 Alpha virt. eigenvalues --   -0.01314  -0.00308   0.00611   0.01550   0.02758
 Alpha virt. eigenvalues --    0.03024   0.03252   0.04192   0.04779   0.05126
 Alpha virt. eigenvalues --    0.05676   0.05950   0.06945   0.07387   0.08090
 Alpha virt. eigenvalues --    0.09182   0.10333   0.10814   0.11006   0.11313
 Alpha virt. eigenvalues --    0.11519   0.12036   0.12350   0.13196   0.13510
 Alpha virt. eigenvalues --    0.13878   0.14083   0.14267   0.15249   0.15556
 Alpha virt. eigenvalues --    0.16280   0.16584   0.17611   0.17639   0.17788
 Alpha virt. eigenvalues --    0.18303   0.18303   0.19149   0.20118   0.20631
 Alpha virt. eigenvalues --    0.20665   0.21427   0.21531   0.21712   0.23204
 Alpha virt. eigenvalues --    0.23581   0.23879   0.25478   0.25590   0.26015
 Alpha virt. eigenvalues --    0.26352   0.27419   0.28536   0.28601   0.29970
 Alpha virt. eigenvalues --    0.30086   0.30170   0.31037   0.32223   0.32676
 Alpha virt. eigenvalues --    0.32936   0.33315   0.33880   0.35172   0.36018
 Alpha virt. eigenvalues --    0.37069   0.38333   0.38723   0.40303   0.41383
 Alpha virt. eigenvalues --    0.42793   0.45294   0.45781   0.47138   0.49619
 Alpha virt. eigenvalues --    0.51576   0.54527   0.55623   0.55870   0.55886
 Alpha virt. eigenvalues --    0.58454   0.59207   0.59900   0.60483   0.62636
 Alpha virt. eigenvalues --    0.62799   0.63709   0.64083   0.66093   0.66156
 Alpha virt. eigenvalues --    0.66934   0.69138   0.69629   0.70545   0.71124
 Alpha virt. eigenvalues --    0.73603   0.73806   0.75298   0.76882   0.78360
 Alpha virt. eigenvalues --    0.79999   0.80705   0.81708   0.82868   0.84205
 Alpha virt. eigenvalues --    0.86075   0.87119   0.87565   0.89224   0.90224
 Alpha virt. eigenvalues --    0.91718   0.93116   0.93929   0.94939   0.96548
 Alpha virt. eigenvalues --    0.96649   0.97749   1.01057   1.01908   1.03455
 Alpha virt. eigenvalues --    1.04094   1.04754   1.06194   1.08062   1.09205
 Alpha virt. eigenvalues --    1.09389   1.13072   1.15377   1.15953   1.16982
 Alpha virt. eigenvalues --    1.18792   1.18866   1.22375   1.29950   1.31092
 Alpha virt. eigenvalues --    1.31710   1.36054   1.40626   1.45044   1.46566
 Alpha virt. eigenvalues --    1.51776   1.52352   1.52883   1.55200   1.56435
 Alpha virt. eigenvalues --    1.56646   1.58160   1.59891   1.61200   1.62392
 Alpha virt. eigenvalues --    1.64191   1.67682   1.70320   1.70600   1.71997
 Alpha virt. eigenvalues --    1.73448   1.73759   1.75587   1.76761   1.77136
 Alpha virt. eigenvalues --    1.81270   1.83630   1.85746   1.86878   1.88627
 Alpha virt. eigenvalues --    1.89826   1.90626   1.92957   1.94477   1.95235
 Alpha virt. eigenvalues --    1.98097   1.99701   2.03792   2.05191   2.08074
 Alpha virt. eigenvalues --    2.09046   2.09850   2.11233   2.13645   2.14112
 Alpha virt. eigenvalues --    2.15589   2.19528   2.22279   2.24732   2.32756
 Alpha virt. eigenvalues --    2.35313   2.38488   2.40310   2.46433   2.48618
 Alpha virt. eigenvalues --    2.49245   2.51424   2.54357   2.55303   2.56247
 Alpha virt. eigenvalues --    2.57340   2.59115   2.62518   2.66807   2.68967
 Alpha virt. eigenvalues --    2.69130   2.70670   2.73935   2.75024   2.77184
 Alpha virt. eigenvalues --    2.77981   2.79293   2.80846   2.83028   2.83136
 Alpha virt. eigenvalues --    2.86204   2.87106   2.92930   2.93210   2.95627
 Alpha virt. eigenvalues --    2.95852   2.96000   2.99424   3.04769   3.09482
 Alpha virt. eigenvalues --    3.12541   3.13234   3.17408   3.19426   3.25219
 Alpha virt. eigenvalues --    3.27971   3.31862   3.38317   3.42362   3.47476
 Alpha virt. eigenvalues --    3.48866   3.55111   3.55767   3.65571   3.67036
 Alpha virt. eigenvalues --    3.71083   3.74600   3.80931   3.87793   3.92291
 Alpha virt. eigenvalues --    3.99703   4.10081   4.13544   4.15904   4.21626
 Alpha virt. eigenvalues --    4.27197   4.46548   4.87945   4.98119   5.09074
 Alpha virt. eigenvalues --    5.18868   5.47540   5.85467  23.72159  23.96136
 Alpha virt. eigenvalues --   24.03401  24.04495  24.10307  24.16488  24.22888
 Alpha virt. eigenvalues --   24.29221  24.31624  35.77732  50.11787
  Beta  occ. eigenvalues --  -19.22802 -14.42719 -10.27472 -10.26726 -10.25505
  Beta  occ. eigenvalues --  -10.25062 -10.22757 -10.22286 -10.21663 -10.21611
  Beta  occ. eigenvalues --  -10.21007  -1.09524  -1.01374  -0.86854  -0.80953
  Beta  occ. eigenvalues --   -0.77123  -0.74688  -0.71543  -0.63609  -0.61744
  Beta  occ. eigenvalues --   -0.60116  -0.56328  -0.53183  -0.50672  -0.48108
  Beta  occ. eigenvalues --   -0.47629  -0.45644  -0.44029  -0.43720  -0.41874
  Beta  occ. eigenvalues --   -0.40867  -0.40532  -0.37454  -0.36443  -0.33684
  Beta  occ. eigenvalues --   -0.31233  -0.29337  -0.22014  -0.21312
  Beta virt. eigenvalues --   -0.01314  -0.00308   0.00611   0.01550   0.02758
  Beta virt. eigenvalues --    0.03024   0.03252   0.04192   0.04779   0.05126
  Beta virt. eigenvalues --    0.05676   0.05950   0.06945   0.07387   0.08090
  Beta virt. eigenvalues --    0.09182   0.10333   0.10814   0.11006   0.11313
  Beta virt. eigenvalues --    0.11519   0.12036   0.12350   0.13196   0.13510
  Beta virt. eigenvalues --    0.13878   0.14083   0.14267   0.15249   0.15556
  Beta virt. eigenvalues --    0.16280   0.16584   0.17611   0.17639   0.17788
  Beta virt. eigenvalues --    0.18303   0.18303   0.19149   0.20118   0.20631
  Beta virt. eigenvalues --    0.20665   0.21427   0.21531   0.21712   0.23204
  Beta virt. eigenvalues --    0.23581   0.23879   0.25478   0.25590   0.26015
  Beta virt. eigenvalues --    0.26352   0.27419   0.28536   0.28601   0.29970
  Beta virt. eigenvalues --    0.30086   0.30170   0.31037   0.32223   0.32676
  Beta virt. eigenvalues --    0.32936   0.33315   0.33880   0.35172   0.36018
  Beta virt. eigenvalues --    0.37069   0.38333   0.38723   0.40303   0.41383
  Beta virt. eigenvalues --    0.42793   0.45294   0.45781   0.47138   0.49619
  Beta virt. eigenvalues --    0.51576   0.54527   0.55623   0.55870   0.55886
  Beta virt. eigenvalues --    0.58454   0.59207   0.59900   0.60483   0.62636
  Beta virt. eigenvalues --    0.62799   0.63709   0.64083   0.66093   0.66156
  Beta virt. eigenvalues --    0.66934   0.69138   0.69629   0.70545   0.71124
  Beta virt. eigenvalues --    0.73603   0.73806   0.75298   0.76882   0.78360
  Beta virt. eigenvalues --    0.79999   0.80705   0.81708   0.82868   0.84205
  Beta virt. eigenvalues --    0.86075   0.87119   0.87565   0.89224   0.90224
  Beta virt. eigenvalues --    0.91718   0.93116   0.93929   0.94939   0.96548
  Beta virt. eigenvalues --    0.96649   0.97749   1.01057   1.01908   1.03455
  Beta virt. eigenvalues --    1.04094   1.04754   1.06194   1.08062   1.09205
  Beta virt. eigenvalues --    1.09389   1.13072   1.15377   1.15953   1.16982
  Beta virt. eigenvalues --    1.18792   1.18866   1.22375   1.29950   1.31092
  Beta virt. eigenvalues --    1.31710   1.36054   1.40626   1.45044   1.46566
  Beta virt. eigenvalues --    1.51776   1.52352   1.52883   1.55200   1.56435
  Beta virt. eigenvalues --    1.56646   1.58160   1.59891   1.61200   1.62392
  Beta virt. eigenvalues --    1.64191   1.67682   1.70320   1.70600   1.71997
  Beta virt. eigenvalues --    1.73448   1.73759   1.75587   1.76761   1.77136
  Beta virt. eigenvalues --    1.81270   1.83630   1.85746   1.86878   1.88627
  Beta virt. eigenvalues --    1.89826   1.90626   1.92957   1.94477   1.95235
  Beta virt. eigenvalues --    1.98097   1.99701   2.03792   2.05191   2.08074
  Beta virt. eigenvalues --    2.09046   2.09850   2.11233   2.13645   2.14112
  Beta virt. eigenvalues --    2.15589   2.19528   2.22279   2.24732   2.32756
  Beta virt. eigenvalues --    2.35313   2.38488   2.40310   2.46433   2.48618
  Beta virt. eigenvalues --    2.49245   2.51424   2.54357   2.55303   2.56247
  Beta virt. eigenvalues --    2.57340   2.59115   2.62518   2.66807   2.68967
  Beta virt. eigenvalues --    2.69130   2.70670   2.73935   2.75024   2.77184
  Beta virt. eigenvalues --    2.77981   2.79293   2.80846   2.83028   2.83136
  Beta virt. eigenvalues --    2.86204   2.87106   2.92930   2.93210   2.95627
  Beta virt. eigenvalues --    2.95852   2.96000   2.99424   3.04769   3.09482
  Beta virt. eigenvalues --    3.12541   3.13234   3.17408   3.19426   3.25219
  Beta virt. eigenvalues --    3.27971   3.31862   3.38317   3.42362   3.47476
  Beta virt. eigenvalues --    3.48866   3.55111   3.55767   3.65571   3.67036
  Beta virt. eigenvalues --    3.71083   3.74600   3.80931   3.87793   3.92291
  Beta virt. eigenvalues --    3.99703   4.10081   4.13544   4.15904   4.21626
  Beta virt. eigenvalues --    4.27197   4.46548   4.87945   4.98119   5.09074
  Beta virt. eigenvalues --    5.18868   5.47540   5.85467  23.72159  23.96136
  Beta virt. eigenvalues --   24.03401  24.04495  24.10307  24.16488  24.22888
  Beta virt. eigenvalues --   24.29221  24.31624  35.77732  50.11787
          Condensed to atoms (all electrons):
               1          2          3          4          5          6
     1  C   12.547182  -0.153950   1.312205  -0.258674  -0.133855  -2.094816
     2  C   -0.153950  11.672628   1.570086  -0.196213  -0.327028  -2.479707
     3  C    1.312205   1.570086  10.213590  -0.197735   0.657508  -1.038532
     4  H   -0.258674  -0.196213  -0.197735   0.503689  -0.020576   0.078116
     5  C   -0.133855  -0.327028   0.657508  -0.020576   6.453228   0.298182
     6  C   -2.094816  -2.479707  -1.038532   0.078116   0.298182  15.803249
     7  H    0.005355   0.004277   0.025611  -0.000513  -0.024825  -0.110836
     8  H   -0.202071   0.509572   0.104909  -0.003191   0.027712   0.135288
     9  C   -1.321992   1.536517   1.231480  -0.017847   0.637308  -3.815911
    10  C    0.070541  -0.180298  -3.000119   0.052300  -1.037245  -0.539471
    11  H    0.128606   0.069034   0.560227  -0.024295   0.032874  -0.184333
    12  C   -4.152488  -6.865405  -5.165796   0.887563  -0.739031   1.863769
    13  N    0.082990   0.102647  -0.057360  -0.004757   0.233912  -0.308196
    14  O    0.457615   0.429929   0.147901  -0.037529   0.001763  -0.019634
    15  H    0.044384   0.025242  -0.013163   0.000462  -0.106908  -0.011496
    16  H   -0.003923  -0.007203  -0.031103  -0.000160   0.405340   0.034103
    17  C    0.209611  -0.421094  -0.018570   0.004028  -0.007255  -0.024719
    18  H    0.080807  -0.080272  -0.012949   0.002212  -0.001049  -0.003330
    19  H   -0.040507   0.058666   0.007978  -0.001166   0.000851  -0.003946
    20  H   -0.040508   0.058663   0.007977  -0.001165   0.000851  -0.003945
               7          8          9         10         11         12
     1  C    0.005355  -0.202071  -1.321992   0.070541   0.128606  -4.152488
     2  C    0.004277   0.509572   1.536517  -0.180298   0.069034  -6.865405
     3  C    0.025611   0.104909   1.231480  -3.000119   0.560227  -5.165796
     4  H   -0.000513  -0.003191  -0.017847   0.052300  -0.024295   0.887563
     5  C   -0.024825   0.027712   0.637308  -1.037245   0.032874  -0.739031
     6  C   -0.110836   0.135288  -3.815911  -0.539471  -0.184333   1.863769
     7  H    0.364420   0.000064   0.062812  -0.032652   0.004160  -0.015546
     8  H    0.000064   0.515770   0.097882  -0.181908   0.003335  -0.135503
     9  C    0.062812   0.097882  14.332528  -4.094751   0.024980  -3.621729
    10  C   -0.032652  -0.181908  -4.094751  11.563083  -0.092297   3.028246
    11  H    0.004160   0.003335   0.024980  -0.092297   0.531532  -0.262674
    12  C   -0.015546  -0.135503  -3.621729   3.028246  -0.262674  22.721786
    13  N    0.395567  -0.004432   0.151591  -0.204831   0.007826  -0.106076
    14  O    0.000162  -0.023502   0.011531  -0.022528   0.000724  -1.140643
    15  H    0.000300   0.001846  -0.007329   0.348709   0.000242   0.013156
    16  H   -0.003244  -0.000234  -0.049442   0.053045  -0.000594   0.006212
    17  C   -0.000217  -0.013333  -0.157230  -0.002654  -0.001196   0.135951
    18  H   -0.000029  -0.000193  -0.015302   0.005278  -0.000264   0.071549
    19  H    0.000026  -0.008307   0.009345  -0.004289   0.000005  -0.053017
    20  H    0.000026  -0.008307   0.009345  -0.004289   0.000005  -0.053014
              13         14         15         16         17         18
     1  C    0.082990   0.457615   0.044384  -0.003923   0.209611   0.080807
     2  C    0.102647   0.429929   0.025242  -0.007203  -0.421094  -0.080272
     3  C   -0.057360   0.147901  -0.013163  -0.031103  -0.018570  -0.012949
     4  H   -0.004757  -0.037529   0.000462  -0.000160   0.004028   0.002212
     5  C    0.233912   0.001763  -0.106908   0.405340  -0.007255  -0.001049
     6  C   -0.308196  -0.019634  -0.011496   0.034103  -0.024719  -0.003330
     7  H    0.395567   0.000162   0.000300  -0.003244  -0.000217  -0.000029
     8  H   -0.004432  -0.023502   0.001846  -0.000234  -0.013333  -0.000193
     9  C    0.151591   0.011531  -0.007329  -0.049442  -0.157230  -0.015302
    10  C   -0.204831  -0.022528   0.348709   0.053045  -0.002654   0.005278
    11  H    0.007826   0.000724   0.000242  -0.000594  -0.001196  -0.000264
    12  C   -0.106076  -1.140643   0.013156   0.006212   0.135951   0.071549
    13  N    6.852568   0.001487   0.019350  -0.073422   0.001069   0.000032
    14  O    0.001487   8.248061  -0.000582  -0.000087   0.193738  -0.084395
    15  H    0.019350  -0.000582   0.497925  -0.006472   0.003461   0.000234
    16  H   -0.073422  -0.000087  -0.006472   0.471767   0.000044   0.000010
    17  C    0.001069   0.193738   0.003461   0.000044   5.385719   0.399471
    18  H    0.000032  -0.084395   0.000234   0.000010   0.399471   0.479818
    19  H    0.000243  -0.034893   0.000145  -0.000027   0.401836  -0.022577
    20  H    0.000244  -0.034893   0.000145  -0.000027   0.401836  -0.022577
              19         20
     1  C   -0.040507  -0.040508
     2  C    0.058666   0.058663
     3  C    0.007978   0.007977
     4  H   -0.001166  -0.001165
     5  C    0.000851   0.000851
     6  C   -0.003946  -0.003945
     7  H    0.000026   0.000026
     8  H   -0.008307  -0.008307
     9  C    0.009345   0.009345
    10  C   -0.004289  -0.004289
    11  H    0.000005   0.000005
    12  C   -0.053017  -0.053014
    13  N    0.000243   0.000244
    14  O   -0.034893  -0.034893
    15  H    0.000145   0.000145
    16  H   -0.000027  -0.000027
    17  C    0.401836   0.401836
    18  H   -0.022577  -0.022577
    19  H    0.581299  -0.074641
    20  H   -0.074641   0.581298
          Atomic-Atomic Spin Densities.
               1          2          3          4          5          6
     1  C    0.000000   0.000000   0.000000   0.000000   0.000000   0.000000
     2  C    0.000000   0.000000   0.000000   0.000000   0.000000   0.000000
     3  C    0.000000   0.000000   0.000000   0.000000   0.000000   0.000000
     4  H    0.000000   0.000000   0.000000   0.000000   0.000000   0.000000
     5  C    0.000000   0.000000   0.000000   0.000000   0.000000   0.000000
     6  C    0.000000   0.000000   0.000000   0.000000   0.000000   0.000000
     7  H    0.000000   0.000000   0.000000   0.000000   0.000000   0.000000
     8  H    0.000000   0.000000   0.000000   0.000000   0.000000   0.000000
     9  C    0.000000   0.000000   0.000000   0.000000   0.000000   0.000000
    10  C    0.000000   0.000000   0.000000   0.000000   0.000000   0.000000
    11  H    0.000000   0.000000   0.000000   0.000000   0.000000   0.000000
    12  C    0.000000   0.000000   0.000000   0.000000   0.000000   0.000000
    13  N    0.000000   0.000000   0.000000   0.000000   0.000000   0.000000
    14  O    0.000000   0.000000   0.000000   0.000000   0.000000   0.000000
    15  H    0.000000   0.000000   0.000000   0.000000   0.000000   0.000000
    16  H    0.000000   0.000000   0.000000   0.000000   0.000000   0.000000
    17  C    0.000000   0.000000   0.000000   0.000000   0.000000   0.000000
    18  H    0.000000   0.000000   0.000000   0.000000   0.000000   0.000000
    19  H    0.000000   0.000000   0.000000   0.000000   0.000000   0.000000
    20  H    0.000000   0.000000   0.000000   0.000000   0.000000   0.000000
               7          8          9         10         11         12
     1  C    0.000000   0.000000   0.000000   0.000000   0.000000   0.000000
     2  C    0.000000   0.000000   0.000000   0.000000   0.000000   0.000000
     3  C    0.000000   0.000000   0.000000   0.000000   0.000000   0.000000
     4  H    0.000000   0.000000   0.000000   0.000000   0.000000   0.000000
     5  C    0.000000   0.000000   0.000000   0.000000   0.000000   0.000000
     6  C    0.000000   0.000000   0.000000   0.000000   0.000000   0.000000
     7  H    0.000000   0.000000   0.000000   0.000000   0.000000   0.000000
     8  H    0.000000   0.000000   0.000000   0.000000   0.000000   0.000000
     9  C    0.000000   0.000000   0.000000   0.000000   0.000000   0.000000
    10  C    0.000000   0.000000   0.000000   0.000000   0.000000   0.000000
    11  H    0.000000   0.000000   0.000000   0.000000   0.000000   0.000000
    12  C    0.000000   0.000000   0.000000   0.000000   0.000000   0.000000
    13  N    0.000000   0.000000   0.000000   0.000000   0.000000   0.000000
    14  O    0.000000   0.000000   0.000000   0.000000   0.000000   0.000000
    15  H    0.000000   0.000000   0.000000   0.000000   0.000000   0.000000
    16  H    0.000000   0.000000   0.000000   0.000000   0.000000   0.000000
    17  C    0.000000   0.000000   0.000000   0.000000   0.000000   0.000000
    18  H    0.000000   0.000000   0.000000   0.000000   0.000000   0.000000
    19  H    0.000000   0.000000   0.000000   0.000000   0.000000   0.000000
    20  H    0.000000   0.000000   0.000000   0.000000   0.000000   0.000000
              13         14         15         16         17         18
     1  C    0.000000   0.000000   0.000000   0.000000   0.000000   0.000000
     2  C    0.000000   0.000000   0.000000   0.000000   0.000000   0.000000
     3  C    0.000000   0.000000   0.000000   0.000000   0.000000   0.000000
     4  H    0.000000   0.000000   0.000000   0.000000   0.000000   0.000000
     5  C    0.000000   0.000000   0.000000   0.000000   0.000000   0.000000
     6  C    0.000000   0.000000   0.000000   0.000000   0.000000   0.000000
     7  H    0.000000   0.000000   0.000000   0.000000   0.000000   0.000000
     8  H    0.000000   0.000000   0.000000   0.000000   0.000000   0.000000
     9  C    0.000000   0.000000   0.000000   0.000000   0.000000   0.000000
    10  C    0.000000   0.000000   0.000000   0.000000   0.000000   0.000000
    11  H    0.000000   0.000000   0.000000   0.000000   0.000000   0.000000
    12  C    0.000000   0.000000   0.000000   0.000000   0.000000   0.000000
    13  N    0.000000   0.000000   0.000000   0.000000   0.000000   0.000000
    14  O    0.000000   0.000000   0.000000   0.000000   0.000000   0.000000
    15  H    0.000000   0.000000   0.000000   0.000000   0.000000   0.000000
    16  H    0.000000   0.000000   0.000000   0.000000   0.000000   0.000000
    17  C    0.000000   0.000000   0.000000   0.000000   0.000000   0.000000
    18  H    0.000000   0.000000   0.000000   0.000000   0.000000   0.000000
    19  H    0.000000   0.000000   0.000000   0.000000   0.000000   0.000000
    20  H    0.000000   0.000000   0.000000   0.000000   0.000000   0.000000
              19         20
     1  C    0.000000   0.000000
     2  C    0.000000   0.000000
     3  C    0.000000   0.000000
     4  H    0.000000   0.000000
     5  C    0.000000   0.000000
     6  C    0.000000   0.000000
     7  H    0.000000   0.000000
     8  H    0.000000   0.000000
     9  C    0.000000   0.000000
    10  C    0.000000   0.000000
    11  H    0.000000   0.000000
    12  C    0.000000   0.000000
    13  N    0.000000   0.000000
    14  O    0.000000   0.000000
    15  H    0.000000   0.000000
    16  H    0.000000   0.000000
    17  C    0.000000   0.000000
    18  H    0.000000   0.000000
    19  H    0.000000   0.000000
    20  H    0.000000   0.000000
 Mulliken charges and spin densities:
               1          2
     1  C   -0.536513   0.000000
     2  C    0.673906   0.000000
     3  C   -0.304147   0.000000
     4  H    0.235452   0.000000
     5  C   -0.351758   0.000000
     6  C   -1.573835   0.000000
     7  H    0.325082   0.000000
     8  H    0.184603   0.000000
     9  C    0.996214   0.000000
    10  C    0.276127   0.000000
    11  H    0.202101   0.000000
    12  C   -0.417309   0.000000
    13  N   -0.090451   0.000000
    14  O   -0.094224   0.000000
    15  H    0.190352   0.000000
    16  H    0.205416   0.000000
    17  C   -0.490496   0.000000
    18  H    0.203527   0.000000
    19  H    0.182977   0.000000
    20  H    0.182977   0.000000
 Sum of Mulliken charges =   0.00000   0.00000
 Mulliken charges and spin densities with hydrogens summed into heavy atoms:
               1          2
     1  C   -0.536513   0.000000
     2  C    0.858509   0.000000
     3  C   -0.102046   0.000000
     5  C   -0.146342   0.000000
     6  C   -1.573835   0.000000
     9  C    0.996214   0.000000
    10  C    0.466479   0.000000
    12  C   -0.181857   0.000000
    13  N    0.234630   0.000000
    14  O   -0.094224   0.000000
    17  C    0.078985   0.000000
 Electronic spatial extent (au):  <R**2>=           1821.5268
 Charge=              0.0000 electrons
 Dipole moment (field-independent basis, Debye):
    X=              1.7022    Y=             -0.1986    Z=              0.0000  Tot=              1.7137
 Quadrupole moment (field-independent basis, Debye-Ang):
   XX=            -50.3347   YY=            -57.2551   ZZ=            -69.9636
   XY=              8.2038   XZ=              0.0000   YZ=              0.0000
 Traceless Quadrupole moment (field-independent basis, Debye-Ang):
   XX=              8.8498   YY=              1.9294   ZZ=            -10.7792
   XY=              8.2038   XZ=              0.0000   YZ=              0.0000
 Octapole moment (field-independent basis, Debye-Ang**2):
  XXX=             24.8552  YYY=              6.8124  ZZZ=              0.0000  XYY=              3.3948
  XXY=             -3.4757  XXZ=              0.0001  XZZ=             -8.5610  YZZ=              0.0640
  YYZ=              0.0000  XYZ=              0.0000
 Hexadecapole moment (field-independent basis, Debye-Ang**3):
 XXXX=          -1495.2992 YYYY=           -519.1519 ZZZZ=            -86.8192 XXXY=             86.4115
 XXXZ=              0.0001 YYYX=             11.9707 YYYZ=              0.0000 ZZZX=              0.0000
 ZZZY=              0.0000 XXYY=           -352.3742 XXZZ=           -335.9950 YYZZ=           -122.3372
 XXYZ=              0.0001 YYXZ=              0.0001 ZZXY=              9.5511
 N-N= 5.729616399716D+02 E-N=-2.259486668425D+03  KE= 4.760593814054D+02
                          Isotropic Fermi Contact Couplings
        Atom                 a.u.       MegaHertz       Gauss      10(-4) cm-1
     1  C(13)              0.00000       0.00000       0.00000       0.00000
     2  C(13)              0.00000       0.00000       0.00000       0.00000
     3  C(13)              0.00000       0.00000       0.00000       0.00000
     4  H(1)               0.00000       0.00000       0.00000       0.00000
     5  C(13)              0.00000       0.00000       0.00000       0.00000
     6  C(13)              0.00000       0.00000       0.00000       0.00000
     7  H(1)               0.00000       0.00000       0.00000       0.00000
     8  H(1)               0.00000       0.00000       0.00000       0.00000
     9  C(13)              0.00000       0.00000       0.00000       0.00000
    10  C(13)              0.00000       0.00000       0.00000       0.00000
    11  H(1)               0.00000       0.00000       0.00000       0.00000
    12  C(13)              0.00000       0.00000       0.00000       0.00000
    13  N(14)              0.00000       0.00000       0.00000       0.00000
    14  O(17)              0.00000       0.00000       0.00000       0.00000
    15  H(1)               0.00000       0.00000       0.00000       0.00000
    16  H(1)               0.00000       0.00000       0.00000       0.00000
    17  C(13)              0.00000       0.00000       0.00000       0.00000
    18  H(1)               0.00000       0.00000       0.00000       0.00000
    19  H(1)               0.00000       0.00000       0.00000       0.00000
    20  H(1)               0.00000       0.00000       0.00000       0.00000
 --------------------------------------------------------
       Center         ----  Spin Dipole Couplings  ----
                      3XX-RR        3YY-RR        3ZZ-RR
 --------------------------------------------------------
     1   Atom        0.000000      0.000000      0.000000
     2   Atom        0.000000      0.000000      0.000000
     3   Atom        0.000000      0.000000      0.000000
     4   Atom        0.000000      0.000000      0.000000
     5   Atom        0.000000      0.000000      0.000000
     6   Atom        0.000000      0.000000      0.000000
     7   Atom        0.000000      0.000000      0.000000
     8   Atom        0.000000      0.000000      0.000000
     9   Atom        0.000000      0.000000      0.000000
    10   Atom        0.000000      0.000000      0.000000
    11   Atom        0.000000      0.000000      0.000000
    12   Atom        0.000000      0.000000      0.000000
    13   Atom        0.000000      0.000000      0.000000
    14   Atom        0.000000      0.000000      0.000000
    15   Atom        0.000000      0.000000      0.000000
    16   Atom        0.000000      0.000000      0.000000
    17   Atom        0.000000      0.000000      0.000000
    18   Atom        0.000000      0.000000      0.000000
    19   Atom        0.000000      0.000000      0.000000
    20   Atom        0.000000      0.000000      0.000000
 --------------------------------------------------------
                        XY            XZ            YZ
 --------------------------------------------------------
     1   Atom        0.000000      0.000000      0.000000
     2   Atom        0.000000      0.000000      0.000000
     3   Atom        0.000000      0.000000      0.000000
     4   Atom        0.000000      0.000000      0.000000
     5   Atom        0.000000      0.000000      0.000000
     6   Atom        0.000000      0.000000      0.000000
     7   Atom        0.000000      0.000000      0.000000
     8   Atom        0.000000      0.000000      0.000000
     9   Atom        0.000000      0.000000      0.000000
    10   Atom        0.000000      0.000000      0.000000
    11   Atom        0.000000      0.000000      0.000000
    12   Atom        0.000000      0.000000      0.000000
    13   Atom        0.000000      0.000000      0.000000
    14   Atom        0.000000      0.000000      0.000000
    15   Atom        0.000000      0.000000      0.000000
    16   Atom        0.000000      0.000000      0.000000
    17   Atom        0.000000      0.000000      0.000000
    18   Atom        0.000000      0.000000      0.000000
    19   Atom        0.000000      0.000000      0.000000
    20   Atom        0.000000      0.000000      0.000000
 --------------------------------------------------------


 ---------------------------------------------------------------------------------
              Anisotropic Spin Dipole Couplings in Principal Axis System
 ---------------------------------------------------------------------------------

       Atom             a.u.   MegaHertz   Gauss  10(-4) cm-1        Axes

              Baa     0.0000     0.000     0.000     0.000  1.0000  0.0000  0.0000
     1 C(13)  Bbb     0.0000     0.000     0.000     0.000  0.0000  1.0000  0.0000
              Bcc     0.0000     0.000     0.000     0.000  0.0000  0.0000  1.0000
 
              Baa     0.0000     0.000     0.000     0.000  1.0000  0.0000  0.0000
     2 C(13)  Bbb     0.0000     0.000     0.000     0.000  0.0000  1.0000  0.0000
              Bcc     0.0000     0.000     0.000     0.000  0.0000  0.0000  1.0000
 
              Baa     0.0000     0.000     0.000     0.000  1.0000  0.0000  0.0000
     3 C(13)  Bbb     0.0000     0.000     0.000     0.000  0.0000  1.0000  0.0000
              Bcc     0.0000     0.000     0.000     0.000  0.0000  0.0000  1.0000
 
              Baa     0.0000     0.000     0.000     0.000  1.0000  0.0000  0.0000
     4 H(1)   Bbb     0.0000     0.000     0.000     0.000  0.0000  1.0000  0.0000
              Bcc     0.0000     0.000     0.000     0.000  0.0000  0.0000  1.0000
 
              Baa     0.0000     0.000     0.000     0.000  1.0000  0.0000  0.0000
     5 C(13)  Bbb     0.0000     0.000     0.000     0.000  0.0000  1.0000  0.0000
              Bcc     0.0000     0.000     0.000     0.000  0.0000  0.0000  1.0000
 
              Baa     0.0000     0.000     0.000     0.000  1.0000  0.0000  0.0000
     6 C(13)  Bbb     0.0000     0.000     0.000     0.000  0.0000  1.0000  0.0000
              Bcc     0.0000     0.000     0.000     0.000  0.0000  0.0000  1.0000
 
              Baa     0.0000     0.000     0.000     0.000  1.0000  0.0000  0.0000
     7 H(1)   Bbb     0.0000     0.000     0.000     0.000  0.0000  1.0000  0.0000
              Bcc     0.0000     0.000     0.000     0.000  0.0000  0.0000  1.0000
 
              Baa     0.0000     0.000     0.000     0.000  1.0000  0.0000  0.0000
     8 H(1)   Bbb     0.0000     0.000     0.000     0.000  0.0000  1.0000  0.0000
              Bcc     0.0000     0.000     0.000     0.000  0.0000  0.0000  1.0000
 
              Baa     0.0000     0.000     0.000     0.000  1.0000  0.0000  0.0000
     9 C(13)  Bbb     0.0000     0.000     0.000     0.000  0.0000  1.0000  0.0000
              Bcc     0.0000     0.000     0.000     0.000  0.0000  0.0000  1.0000
 
              Baa     0.0000     0.000     0.000     0.000  1.0000  0.0000  0.0000
    10 C(13)  Bbb     0.0000     0.000     0.000     0.000  0.0000  1.0000  0.0000
              Bcc     0.0000     0.000     0.000     0.000  0.0000  0.0000  1.0000
 
              Baa     0.0000     0.000     0.000     0.000  1.0000  0.0000  0.0000
    11 H(1)   Bbb     0.0000     0.000     0.000     0.000  0.0000  1.0000  0.0000
              Bcc     0.0000     0.000     0.000     0.000  0.0000  0.0000  1.0000
 
              Baa     0.0000     0.000     0.000     0.000  1.0000  0.0000  0.0000
    12 C(13)  Bbb     0.0000     0.000     0.000     0.000  0.0000  1.0000  0.0000
              Bcc     0.0000     0.000     0.000     0.000  0.0000  0.0000  1.0000
 
              Baa     0.0000     0.000     0.000     0.000  1.0000  0.0000  0.0000
    13 N(14)  Bbb     0.0000     0.000     0.000     0.000  0.0000  1.0000  0.0000
              Bcc     0.0000     0.000     0.000     0.000  0.0000  0.0000  1.0000
 
              Baa     0.0000     0.000     0.000     0.000  1.0000  0.0000  0.0000
    14 O(17)  Bbb     0.0000     0.000     0.000     0.000  0.0000  1.0000  0.0000
              Bcc     0.0000     0.000     0.000     0.000  0.0000  0.0000  1.0000
 
              Baa     0.0000     0.000     0.000     0.000  1.0000  0.0000  0.0000
    15 H(1)   Bbb     0.0000     0.000     0.000     0.000  0.0000  1.0000  0.0000
              Bcc     0.0000     0.000     0.000     0.000  0.0000  0.0000  1.0000
 
              Baa     0.0000     0.000     0.000     0.000  1.0000  0.0000  0.0000
    16 H(1)   Bbb     0.0000     0.000     0.000     0.000  0.0000  1.0000  0.0000
              Bcc     0.0000     0.000     0.000     0.000  0.0000  0.0000  1.0000
 
              Baa     0.0000     0.000     0.000     0.000  1.0000  0.0000  0.0000
    17 C(13)  Bbb     0.0000     0.000     0.000     0.000  0.0000  1.0000  0.0000
              Bcc     0.0000     0.000     0.000     0.000  0.0000  0.0000  1.0000
 
              Baa     0.0000     0.000     0.000     0.000  1.0000  0.0000  0.0000
    18 H(1)   Bbb     0.0000     0.000     0.000     0.000  0.0000  1.0000  0.0000
              Bcc     0.0000     0.000     0.000     0.000  0.0000  0.0000  1.0000
 
              Baa     0.0000     0.000     0.000     0.000  1.0000  0.0000  0.0000
    19 H(1)   Bbb     0.0000     0.000     0.000     0.000  0.0000  1.0000  0.0000
              Bcc     0.0000     0.000     0.000     0.000  0.0000  0.0000  1.0000
 
              Baa     0.0000     0.000     0.000     0.000  1.0000  0.0000  0.0000
    20 H(1)   Bbb     0.0000     0.000     0.000     0.000  0.0000  1.0000  0.0000
              Bcc     0.0000     0.000     0.000     0.000  0.0000  0.0000  1.0000
 

 ---------------------------------------------------------------------------------

 1\1\GINC-NC78\FOpt\UPBE1PBE\6-311++G(d,p)\C9H9N1O1\C.6137\16-Jul-2025\
 0\\# UPBE1PBE/6-311++g(d,p) opt freq\\Nu\\0,1\C,-3.8073321869,1.301054
 9521,-0.0126183234\C,-2.7261724771,2.1634795338,-0.0629317907\C,-2.359
 8520062,-0.6448650043,0.1457386959\H,-4.5062226855,-0.7200382908,0.126
 4546439\C,0.7684427487,1.1528429915,0.050950968\C,-1.266897536,0.22047
 66159,0.0953485825\H,0.5061364584,-0.9422601169,0.2004438508\H,-2.8567
 537837,3.2357065578,-0.1424947536\C,-1.4316498078,1.6183287099,-0.0083
 142428\C,-0.1206345972,2.1890124358,-0.0347366042\H,-2.2319768324,-1.7
 197940364,0.2254679841\C,-3.6221880164,-0.0935621334,0.0910441385\N,0.
 0847274927,-0.033400108,0.1294226306\O,-5.1101485822,1.697984361,-0.05
 65411305\H,0.1354807586,3.2354056664,-0.1079596166\H,1.848317199,1.166
 6540959,0.0624023495\C,-5.3683831157,3.0757856258,-0.1598239115\H,-6.4
 529802981,3.181732054,-0.1800477249\H,-4.9688882785,3.6270187342,0.700
 8508559\H,-4.9483244538,3.4972373552,-1.0818566066\\Version=ES64L-G09R
 evD.01\State=1-A\HF=-477.908211\S2=0.\S2-1=0.\S2A=0.\RMSD=4.502e-09\RM
 SF=2.845e-05\Dipole=0.6652514,-0.1086018,0.0155772\Quadrupole=2.955887
 9,4.9769255,-7.9328134,-6.5090622,0.6003799,-1.0208032\PG=C01 [X(C9H9N
 1O1)]\\@


 SEE YOU NOW,
 YOUR BAIT OF FALSEHOOD TAKES THIS CARP OF TRUTH.
 AND THUS DO WE OF WISDOM AND OF REACH...
 BY INDIRECTIONS FIND DIRECTIONS OUT.    -- HAMLET, II, 1
 Job cpu time:       0 days  0 hours 47 minutes 41.6 seconds.
 File lengths (MBytes):  RWF=     73 Int=      0 D2E=      0 Chk=     12 Scr=      1
 Normal termination of Gaussian 09 at Wed Jul 16 07:15:07 2025.
 Link1:  Proceeding to internal job step number  2.
 ----------------------------------------------------------------------
 #N Geom=AllCheck Guess=TCheck SCRF=Check GenChk UPBE1PBE/6-311++G(d,p)
  Freq
 ----------------------------------------------------------------------
 1/10=4,29=7,30=1,38=1,40=1/1,3;
 2/12=2,40=1/2;
 3/5=4,6=6,7=1111,11=2,14=-4,16=1,25=1,30=1,70=2,71=2,74=-13,116=2,140=1/1,2,3;
 4/5=101/1;
 5/5=2,98=1/2;
 8/6=4,10=90,11=11/1;
 11/6=1,8=1,9=11,15=111,16=1/1,2,10;
 10/6=1/2;
 6/7=2,8=2,9=2,10=2,18=1,28=1/1;
 7/8=1,10=1,25=1/1,2,3,16;
 1/10=4,30=1/3;
 99//99;
 Structure from the checkpoint file:  "opt_203.chk"
 --
 Nu
 --
 Charge =  0 Multiplicity = 1
 Redundant internal coordinates found in file.
 C,0,-3.8073321869,1.3010549521,-0.0126183234
 C,0,-2.7261724771,2.1634795338,-0.0629317907
 C,0,-2.3598520062,-0.6448650043,0.1457386959
 H,0,-4.5062226855,-0.7200382908,0.1264546439
 C,0,0.7684427487,1.1528429915,0.050950968
 C,0,-1.266897536,0.2204766159,0.0953485825
 H,0,0.5061364584,-0.9422601169,0.2004438508
 H,0,-2.8567537837,3.2357065578,-0.1424947536
 C,0,-1.4316498078,1.6183287099,-0.0083142428
 C,0,-0.1206345972,2.1890124358,-0.0347366042
 H,0,-2.2319768324,-1.7197940364,0.2254679841
 C,0,-3.6221880164,-0.0935621334,0.0910441385
 N,0,0.0847274927,-0.033400108,0.1294226306
 O,0,-5.1101485822,1.697984361,-0.0565411305
 H,0,0.1354807586,3.2354056664,-0.1079596166
 H,0,1.848317199,1.1666540959,0.0624023495
 C,0,-5.3683831157,3.0757856258,-0.1598239115
 H,0,-6.4529802981,3.181732054,-0.1800477249
 H,0,-4.9688882785,3.6270187342,0.7008508559
 H,0,-4.9483244538,3.4972373552,-1.0818566066
 Recover connectivity data from disk.

 GradGradGradGradGradGradGradGradGradGradGradGradGradGradGradGradGradGrad
 Berny optimization.
 Initialization pass.
                           ----------------------------
                           !    Initial Parameters    !
                           ! (Angstroms and Degrees)  !
 --------------------------                            --------------------------
 ! Name  Definition              Value          Derivative Info.                !
 --------------------------------------------------------------------------------
 ! R1    R(1,2)                  1.3839         calculate D2E/DX2 analytically  !
 ! R2    R(1,12)                 1.4107         calculate D2E/DX2 analytically  !
 ! R3    R(1,14)                 1.3626         calculate D2E/DX2 analytically  !
 ! R4    R(2,8)                  1.0831         calculate D2E/DX2 analytically  !
 ! R5    R(2,9)                  1.4057         calculate D2E/DX2 analytically  !
 ! R6    R(3,6)                  1.395          calculate D2E/DX2 analytically  !
 ! R7    R(3,11)                 1.0854         calculate D2E/DX2 analytically  !
 ! R8    R(3,12)                 1.3786         calculate D2E/DX2 analytically  !
 ! R9    R(4,12)                 1.0841         calculate D2E/DX2 analytically  !
 ! R10   R(5,10)                 1.368          calculate D2E/DX2 analytically  !
 ! R11   R(5,13)                 1.3714         calculate D2E/DX2 analytically  !
 ! R12   R(5,16)                 1.08           calculate D2E/DX2 analytically  !
 ! R13   R(6,9)                  1.4113         calculate D2E/DX2 analytically  !
 ! R14   R(6,13)                 1.3757         calculate D2E/DX2 analytically  !
 ! R15   R(7,13)                 1.0043         calculate D2E/DX2 analytically  !
 ! R16   R(9,10)                 1.4301         calculate D2E/DX2 analytically  !
 ! R17   R(10,15)                1.0798         calculate D2E/DX2 analytically  !
 ! R18   R(14,17)                1.4056         calculate D2E/DX2 analytically  !
 ! R19   R(17,18)                1.0899         calculate D2E/DX2 analytically  !
 ! R20   R(17,19)                1.0974         calculate D2E/DX2 analytically  !
 ! R21   R(17,20)                1.0974         calculate D2E/DX2 analytically  !
 ! A1    A(2,1,12)             121.0795         calculate D2E/DX2 analytically  !
 ! A2    A(2,1,14)             124.349          calculate D2E/DX2 analytically  !
 ! A3    A(12,1,14)            114.5716         calculate D2E/DX2 analytically  !
 ! A4    A(1,2,8)              121.6964         calculate D2E/DX2 analytically  !
 ! A5    A(1,2,9)              118.4479         calculate D2E/DX2 analytically  !
 ! A6    A(8,2,9)              119.8557         calculate D2E/DX2 analytically  !
 ! A7    A(6,3,11)             121.6465         calculate D2E/DX2 analytically  !
 ! A8    A(6,3,12)             117.9004         calculate D2E/DX2 analytically  !
 ! A9    A(11,3,12)            120.453          calculate D2E/DX2 analytically  !
 ! A10   A(10,5,13)            109.5563         calculate D2E/DX2 analytically  !
 ! A11   A(10,5,16)            129.8511         calculate D2E/DX2 analytically  !
 ! A12   A(13,5,16)            120.5926         calculate D2E/DX2 analytically  !
 ! A13   A(3,6,9)              121.7085         calculate D2E/DX2 analytically  !
 ! A14   A(3,6,13)             130.8762         calculate D2E/DX2 analytically  !
 ! A15   A(9,6,13)             107.4152         calculate D2E/DX2 analytically  !
 ! A16   A(2,9,6)              119.6347         calculate D2E/DX2 analytically  !
 ! A17   A(2,9,10)             133.5322         calculate D2E/DX2 analytically  !
 ! A18   A(6,9,10)             106.8331         calculate D2E/DX2 analytically  !
 ! A19   A(5,10,9)             107.0006         calculate D2E/DX2 analytically  !
 ! A20   A(5,10,15)            125.7402         calculate D2E/DX2 analytically  !
 ! A21   A(9,10,15)            127.2592         calculate D2E/DX2 analytically  !
 ! A22   A(1,12,3)             121.229          calculate D2E/DX2 analytically  !
 ! A23   A(1,12,4)             117.8192         calculate D2E/DX2 analytically  !
 ! A24   A(3,12,4)             120.9518         calculate D2E/DX2 analytically  !
 ! A25   A(5,13,6)             109.1948         calculate D2E/DX2 analytically  !
 ! A26   A(5,13,7)             125.2832         calculate D2E/DX2 analytically  !
 ! A27   A(6,13,7)             125.522          calculate D2E/DX2 analytically  !
 ! A28   A(1,14,17)            117.6167         calculate D2E/DX2 analytically  !
 ! A29   A(14,17,18)           106.2281         calculate D2E/DX2 analytically  !
 ! A30   A(14,17,19)           111.5848         calculate D2E/DX2 analytically  !
 ! A31   A(14,17,20)           111.5848         calculate D2E/DX2 analytically  !
 ! A32   A(18,17,19)           109.1466         calculate D2E/DX2 analytically  !
 ! A33   A(18,17,20)           109.1466         calculate D2E/DX2 analytically  !
 ! A34   A(19,17,20)           109.0698         calculate D2E/DX2 analytically  !
 ! D1    D(12,1,2,8)          -180.0            calculate D2E/DX2 analytically  !
 ! D2    D(12,1,2,9)             0.0            calculate D2E/DX2 analytically  !
 ! D3    D(14,1,2,8)             0.0            calculate D2E/DX2 analytically  !
 ! D4    D(14,1,2,9)           180.0            calculate D2E/DX2 analytically  !
 ! D5    D(2,1,12,3)             0.0            calculate D2E/DX2 analytically  !
 ! D6    D(2,1,12,4)           180.0            calculate D2E/DX2 analytically  !
 ! D7    D(14,1,12,3)         -180.0            calculate D2E/DX2 analytically  !
 ! D8    D(14,1,12,4)            0.0            calculate D2E/DX2 analytically  !
 ! D9    D(2,1,14,17)            0.0001         calculate D2E/DX2 analytically  !
 ! D10   D(12,1,14,17)        -179.9999         calculate D2E/DX2 analytically  !
 ! D11   D(1,2,9,6)              0.0            calculate D2E/DX2 analytically  !
 ! D12   D(1,2,9,10)          -179.9999         calculate D2E/DX2 analytically  !
 ! D13   D(8,2,9,6)            180.0            calculate D2E/DX2 analytically  !
 ! D14   D(8,2,9,10)             0.0001         calculate D2E/DX2 analytically  !
 ! D15   D(11,3,6,9)          -180.0            calculate D2E/DX2 analytically  !
 ! D16   D(11,3,6,13)           -0.0001         calculate D2E/DX2 analytically  !
 ! D17   D(12,3,6,9)             0.0            calculate D2E/DX2 analytically  !
 ! D18   D(12,3,6,13)          179.9999         calculate D2E/DX2 analytically  !
 ! D19   D(6,3,12,1)             0.0            calculate D2E/DX2 analytically  !
 ! D20   D(6,3,12,4)           180.0            calculate D2E/DX2 analytically  !
 ! D21   D(11,3,12,1)          180.0            calculate D2E/DX2 analytically  !
 ! D22   D(11,3,12,4)            0.0            calculate D2E/DX2 analytically  !
 ! D23   D(13,5,10,9)           -0.0001         calculate D2E/DX2 analytically  !
 ! D24   D(13,5,10,15)        -180.0            calculate D2E/DX2 analytically  !
 ! D25   D(16,5,10,9)         -180.0            calculate D2E/DX2 analytically  !
 ! D26   D(16,5,10,15)           0.0001         calculate D2E/DX2 analytically  !
 ! D27   D(10,5,13,6)            0.0001         calculate D2E/DX2 analytically  !
 ! D28   D(10,5,13,7)          179.9997         calculate D2E/DX2 analytically  !
 ! D29   D(16,5,13,6)         -180.0            calculate D2E/DX2 analytically  !
 ! D30   D(16,5,13,7)           -0.0004         calculate D2E/DX2 analytically  !
 ! D31   D(3,6,9,2)              0.0            calculate D2E/DX2 analytically  !
 ! D32   D(3,6,9,10)           179.9999         calculate D2E/DX2 analytically  !
 ! D33   D(13,6,9,2)          -179.9999         calculate D2E/DX2 analytically  !
 ! D34   D(13,6,9,10)            0.0            calculate D2E/DX2 analytically  !
 ! D35   D(3,6,13,5)          -179.9999         calculate D2E/DX2 analytically  !
 ! D36   D(3,6,13,7)             0.0004         calculate D2E/DX2 analytically  !
 ! D37   D(9,6,13,5)            -0.0001         calculate D2E/DX2 analytically  !
 ! D38   D(9,6,13,7)          -179.9997         calculate D2E/DX2 analytically  !
 ! D39   D(2,9,10,5)           179.9999         calculate D2E/DX2 analytically  !
 ! D40   D(2,9,10,15)           -0.0001         calculate D2E/DX2 analytically  !
 ! D41   D(6,9,10,5)             0.0            calculate D2E/DX2 analytically  !
 ! D42   D(6,9,10,15)          179.9999         calculate D2E/DX2 analytically  !
 ! D43   D(1,14,17,18)         179.9999         calculate D2E/DX2 analytically  !
 ! D44   D(1,14,17,19)         -61.1508         calculate D2E/DX2 analytically  !
 ! D45   D(1,14,17,20)          61.1506         calculate D2E/DX2 analytically  !
 --------------------------------------------------------------------------------
 Trust Radius=3.00D-01 FncErr=1.00D-07 GrdErr=1.00D-07
 Number of steps in this run=      2 maximum allowed number of steps=      2.
 GradGradGradGradGradGradGradGradGradGradGradGradGradGradGradGradGradGrad

                          Input orientation:                          
 ---------------------------------------------------------------------
 Center     Atomic      Atomic             Coordinates (Angstroms)
 Number     Number       Type             X           Y           Z
 ---------------------------------------------------------------------
      1          6           0       -3.807332    1.301055   -0.012618
      2          6           0       -2.726172    2.163480   -0.062932
      3          6           0       -2.359852   -0.644865    0.145739
      4          1           0       -4.506223   -0.720038    0.126455
      5          6           0        0.768443    1.152843    0.050951
      6          6           0       -1.266898    0.220477    0.095349
      7          1           0        0.506136   -0.942260    0.200444
      8          1           0       -2.856754    3.235707   -0.142495
      9          6           0       -1.431650    1.618329   -0.008314
     10          6           0       -0.120635    2.189012   -0.034737
     11          1           0       -2.231977   -1.719794    0.225468
     12          6           0       -3.622188   -0.093562    0.091044
     13          7           0        0.084727   -0.033400    0.129423
     14          8           0       -5.110149    1.697984   -0.056541
     15          1           0        0.135481    3.235406   -0.107960
     16          1           0        1.848317    1.166654    0.062402
     17          6           0       -5.368383    3.075786   -0.159824
     18          1           0       -6.452980    3.181732   -0.180048
     19          1           0       -4.968888    3.627019    0.700851
     20          1           0       -4.948324    3.497237   -1.081857
 ---------------------------------------------------------------------
                    Distance matrix (angstroms):
                    1          2          3          4          5
     1  C    0.000000
     2  C    1.383913   0.000000
     3  C    2.430407   2.839812   0.000000
     4  H    2.143037   3.393983   2.147773   0.000000
     5  C    4.578616   3.639600   3.609289   5.597810   0.000000
     6  C    2.762809   2.435117   1.394957   3.373242   2.239171
     7  H    4.866608   4.490301   2.881896   5.017828   2.116745
     8  H    2.159478   1.083075   3.922859   4.294298   4.185426
     9  C    2.396779   1.405689   2.450987   3.865116   2.249577
    10  C    3.792189   2.605816   3.616286   5.265163   1.368009
    11  H    3.415254   3.925203   1.085441   2.486264   4.157525
    12  C    1.410667   2.433267   1.378557   1.084087   4.564293
    13  N    4.116925   3.572736   2.519945   4.642015   1.371422
    14  O    1.362649   2.429006   3.618562   2.499009   5.904792
    15  H    4.392787   3.056160   4.620341   6.102942   2.182421
    16  H    5.657744   4.683516   4.582274   6.629019   1.080023
    17  C    2.368168   2.796957   4.794567   3.903019   6.434498
    18  H    3.250297   3.865184   5.612725   4.371226   7.504579
    19  H    2.695989   2.784795   5.036289   4.409183   6.281790
    20  H    2.695988   2.784794   5.036288   4.409182   6.281788
                    6          7          8          9         10
     6  C    0.000000
     7  H    2.122887   0.000000
     8  H    3.416990   5.374202   0.000000
     9  C    1.411340   3.217951   2.159823   0.000000
    10  C    2.281660   3.202034   2.931472   1.430084   0.000000
    11  H    2.170935   2.846480   5.008266   3.440674   4.450196
    12  C    2.376138   4.216079   3.424100   2.781888   4.181727
    13  N    1.375683   1.004319   4.406054   2.246459   2.237910
    14  O    4.120276   6.211247   2.729426   3.679677   5.013665
    15  H    3.331336   4.205400   2.992434   2.254055   1.079766
    16  H    3.255902   2.503602   5.143992   3.311675   2.220681
    17  C    5.004007   7.126322   2.516775   4.200596   5.323615
    18  H    5.978322   8.098234   3.596828   5.261890   6.411334
    19  H    5.067139   7.148749   2.307698   4.129141   5.110236
    20  H    5.067137   7.148746   2.307697   4.129139   5.110235
                   11         12         13         14         15
    11  H    0.000000
    12  C    2.143685   0.000000
    13  N    2.867101   3.707602   0.000000
    14  O    4.477121   2.333548   5.478961   0.000000
    15  H    5.501821   5.024112   3.277807   5.466529   0.000000
    16  H    5.000697   5.613857   2.134214   6.979735   2.691201
    17  C    5.743090   3.627244   6.283877   1.405592   5.506422
    18  H    6.481225   4.337560   7.292083   2.004983   6.589074
    19  H    6.025370   4.003522   6.266118   2.077203   5.182868
    20  H    6.025368   4.003520   6.266116   2.077202   5.182867
                   16         17         18         19         20
    16  H    0.000000
    17  C    7.468262   0.000000
    18  H    8.545810   1.089947   0.000000
    19  H    7.275665   1.097367   1.782356   0.000000
    20  H    7.275664   1.097367   1.782356   1.787544   0.000000
 Stoichiometry    C9H9NO
 Framework group  C1[X(C9H9NO)]
 Deg. of freedom    54
 Full point group                 C1      NOp   1
 Largest Abelian subgroup         C1      NOp   1
 Largest concise Abelian subgroup C1      NOp   1
                         Standard orientation:                         
 ---------------------------------------------------------------------
 Center     Atomic      Atomic             Coordinates (Angstroms)
 Number     Number       Type             X           Y           Z
 ---------------------------------------------------------------------
      1          6           0       -1.427641    0.305372    0.000000
      2          6           0       -0.626322   -0.822946    0.000000
      3          6           0        0.501891    1.783137    0.000000
      4          1           0       -1.541230    2.445396   -0.000001
      5          6           0        3.013252   -0.809166    0.000000
      6          6           0        1.313745    0.648766    0.000001
      7          1           0        3.339920    1.282221    0.000003
      8          1           0       -1.048151   -1.820500    0.000000
      9          6           0        0.769085   -0.653243    0.000001
     10          6           0        1.872037   -1.563537    0.000000
     11          1           0        0.921864    2.784038    0.000000
     12          6           0       -0.864267    1.598659    0.000000
     13          7           0        2.683579    0.522042   -0.000001
     14          8           0       -2.790068    0.280806   -0.000001
     15          1           0        1.829184   -2.642453    0.000000
     16          1           0        4.047814   -1.119218   -0.000001
     17          6           0       -3.419078   -0.976188    0.000000
     18          1           0       -4.491271   -0.780263    0.000001
     19          1           0       -3.159429   -1.557540   -0.893771
     20          1           0       -3.159427   -1.557539    0.893772
 ---------------------------------------------------------------------
 Rotational constants (GHZ):      2.8719388      0.7619780      0.6045224
 Standard basis: 6-311++G(d,p) (5D, 7F)
 There are   316 symmetry adapted cartesian basis functions of A   symmetry.
 There are   305 symmetry adapted basis functions of A   symmetry.
   305 basis functions,   477 primitive gaussians,   316 cartesian basis functions
    39 alpha electrons       39 beta electrons
       nuclear repulsion energy       572.9616399716 Hartrees.
 NAtoms=   20 NActive=   20 NUniq=   20 SFac= 1.00D+00 NAtFMM=   60 NAOKFM=F Big=F
 Integral buffers will be    131072 words long.
 Raffenetti 2 integral format.
 Two-electron integral symmetry is turned on.
 One-electron integrals computed using PRISM.
 NBasis=   305 RedAO= T EigKep=  1.01D-06  NBF=   305
 NBsUse=   303 1.00D-06 EigRej=  8.14D-07 NBFU=   303
 Initial guess from the checkpoint file:  "opt_203.chk"
 B after Tr=     0.000000    0.000000    0.000000
         Rot=    1.000000    0.000000    0.000000    0.000000 Ang=   0.00 deg.
 Initial guess <Sx>= 0.0000 <Sy>= 0.0000 <Sz>= 0.0000 <S**2>= 0.0000 S= 0.0000
 Keep R1 and R2 ints in memory in canonical form, NReq=2193923028.
 Requested convergence on RMS density matrix=1.00D-08 within 128 cycles.
 Requested convergence on MAX density matrix=1.00D-06.
 Requested convergence on             energy=1.00D-06.
 No special actions if energy rises.
 SCF Done:  E(UPBE1PBE) =  -477.908210989     A.U. after    2 cycles
            NFock=  2  Conv=0.33D-08     -V/T= 2.0039
 <Sx>= 0.0000 <Sy>= 0.0000 <Sz>= 0.0000 <S**2>= 0.0000 S= 0.0000
 <L.S>= 0.000000000000E+00
 Annihilation of the first spin contaminant:
 S**2 before annihilation     0.0000,   after     0.0000
 DoSCS=F DFT=T ScalE2(SS,OS)=  1.000000  1.000000
 Range of M.O.s used for correlation:     1   303
 NBasis=   305 NAE=    39 NBE=    39 NFC=     0 NFV=     0
 NROrb=    303 NOA=    39 NOB=    39 NVA=   264 NVB=   264

 **** Warning!!: The largest alpha MO coefficient is  0.17687657D+03


 **** Warning!!: The largest beta MO coefficient is  0.17687657D+03

 Symmetrizing basis deriv contribution to polar:
 IMax=3 JMax=2 DiffMx= 0.00D+00
 G2DrvN: will do    21 centers at a time, making    1 passes.
 Calling FoFCou, ICntrl=  3107 FMM=F I1Cent=   0 AccDes= 0.00D+00.
 End of G2Drv F.D. properties file   721 does not exist.
 End of G2Drv F.D. properties file   722 does not exist.
 End of G2Drv F.D. properties file   788 does not exist.
          IDoAtm=11111111111111111111
          Differentiating once with respect to electric field.
                with respect to dipole field.
          Differentiating once with respect to nuclear coordinates.
 Keep R1 and R2 ints in memory in canonical form, NReq=2193603914.
          There are    63 degrees of freedom in the 1st order CPHF.  IDoFFX=6 NUNeed=     3.
     60 vectors produced by pass  0 Test12= 3.27D-14 1.59D-09 XBig12= 3.82D+02 9.48D+00.
 AX will form    60 AO Fock derivatives at one time.
     60 vectors produced by pass  1 Test12= 3.27D-14 1.59D-09 XBig12= 8.47D+01 1.37D+00.
     60 vectors produced by pass  2 Test12= 3.27D-14 1.59D-09 XBig12= 8.43D-01 7.87D-02.
     60 vectors produced by pass  3 Test12= 3.27D-14 1.59D-09 XBig12= 2.67D-03 4.68D-03.
     60 vectors produced by pass  4 Test12= 3.27D-14 1.59D-09 XBig12= 5.94D-06 1.89D-04.
     58 vectors produced by pass  5 Test12= 3.27D-14 1.59D-09 XBig12= 1.11D-08 8.28D-06.
     21 vectors produced by pass  6 Test12= 3.27D-14 1.59D-09 XBig12= 2.58D-11 3.93D-07.
     18 vectors produced by pass  7 Test12= 3.27D-14 1.59D-09 XBig12= 1.16D-11 2.21D-07.
     15 vectors produced by pass  8 Test12= 3.27D-14 1.59D-09 XBig12= 9.66D-13 7.84D-08.
      9 vectors produced by pass  9 Test12= 3.27D-14 1.59D-09 XBig12= 2.00D-14 1.11D-08.
      8 vectors produced by pass 10 Test12= 3.27D-14 1.59D-09 XBig12= 1.68D-15 4.35D-09.
      8 vectors produced by pass 11 Test12= 3.27D-14 1.59D-09 XBig12= 2.46D-15 5.11D-09.
      8 vectors produced by pass 12 Test12= 3.27D-14 1.59D-09 XBig12= 1.70D-15 4.31D-09.
      5 vectors produced by pass 13 Test12= 3.27D-14 1.59D-09 XBig12= 1.37D-15 3.17D-09.
      4 vectors produced by pass 14 Test12= 3.27D-14 1.59D-09 XBig12= 7.94D-16 2.10D-09.
      2 vectors produced by pass 15 Test12= 3.27D-14 1.59D-09 XBig12= 3.83D-16 2.12D-09.
      2 vectors produced by pass 16 Test12= 3.27D-14 1.59D-09 XBig12= 6.78D-16 2.27D-09.
      1 vectors produced by pass 17 Test12= 3.27D-14 1.59D-09 XBig12= 5.74D-16 2.47D-09.
 InvSVY:  IOpt=1 It=  1 EMax= 2.49D-14
 Solved reduced A of dimension   459 with    63 vectors.
 Isotropic polarizability for W=    0.000000      116.00 Bohr**3.
 End of Minotr F.D. properties file   721 does not exist.
 End of Minotr F.D. properties file   722 does not exist.
 End of Minotr F.D. properties file   788 does not exist.

 **********************************************************************

            Population analysis using the SCF density.

 **********************************************************************

 Orbital symmetries:
 Alpha Orbitals:
       Occupied  (A) (A) (A) (A) (A) (A) (A) (A) (A) (A) (A) (A)
                 (A) (A) (A) (A) (A) (A) (A) (A) (A) (A) (A) (A)
                 (A) (A) (A) (A) (A) (A) (A) (A) (A) (A) (A) (A)
                 (A) (A) (A)
       Virtual   (A) (A) (A) (A) (A) (A) (A) (A) (A) (A) (A) (A)
                 (A) (A) (A) (A) (A) (A) (A) (A) (A) (A) (A) (A)
                 (A) (A) (A) (A) (A) (A) (A) (A) (A) (A) (A) (A)
                 (A) (A) (A) (A) (A) (A) (A) (A) (A) (A) (A) (A)
                 (A) (A) (A) (A) (A) (A) (A) (A) (A) (A) (A) (A)
                 (A) (A) (A) (A) (A) (A) (A) (A) (A) (A) (A) (A)
                 (A) (A) (A) (A) (A) (A) (A) (A) (A) (A) (A) (A)
                 (A) (A) (A) (A) (A) (A) (A) (A) (A) (A) (A) (A)
                 (A) (A) (A) (A) (A) (A) (A) (A) (A) (A) (A) (A)
                 (A) (A) (A) (A) (A) (A) (A) (A) (A) (A) (A) (A)
                 (A) (A) (A) (A) (A) (A) (A) (A) (A) (A) (A) (A)
                 (A) (A) (A) (A) (A) (A) (A) (A) (A) (A) (A) (A)
                 (A) (A) (A) (A) (A) (A) (A) (A) (A) (A) (A) (A)
                 (A) (A) (A) (A) (A) (A) (A) (A) (A) (A) (A) (A)
                 (A) (A) (A) (A) (A) (A) (A) (A) (A) (A) (A) (A)
                 (A) (A) (A) (A) (A) (A) (A) (A) (A) (A) (A) (A)
                 (A) (A) (A) (A) (A) (A) (A) (A) (A) (A) (A) (A)
                 (A) (A) (A) (A) (A) (A) (A) (A) (A) (A) (A) (A)
                 (A) (A) (A) (A) (A) (A) (A) (A) (A) (A) (A) (A)
                 (A) (A) (A) (A) (A) (A) (A) (A) (A) (A) (A) (A)
                 (A) (A) (A) (A) (A) (A) (A) (A) (A) (A) (A) (A)
                 (A) (A) (A) (A) (A) (A) (A) (A) (A) (A) (A) (A)
 Beta  Orbitals:
       Occupied  (A) (A) (A) (A) (A) (A) (A) (A) (A) (A) (A) (A)
                 (A) (A) (A) (A) (A) (A) (A) (A) (A) (A) (A) (A)
                 (A) (A) (A) (A) (A) (A) (A) (A) (A) (A) (A) (A)
                 (A) (A) (A)
       Virtual   (A) (A) (A) (A) (A) (A) (A) (A) (A) (A) (A) (A)
                 (A) (A) (A) (A) (A) (A) (A) (A) (A) (A) (A) (A)
                 (A) (A) (A) (A) (A) (A) (A) (A) (A) (A) (A) (A)
                 (A) (A) (A) (A) (A) (A) (A) (A) (A) (A) (A) (A)
                 (A) (A) (A) (A) (A) (A) (A) (A) (A) (A) (A) (A)
                 (A) (A) (A) (A) (A) (A) (A) (A) (A) (A) (A) (A)
                 (A) (A) (A) (A) (A) (A) (A) (A) (A) (A) (A) (A)
                 (A) (A) (A) (A) (A) (A) (A) (A) (A) (A) (A) (A)
                 (A) (A) (A) (A) (A) (A) (A) (A) (A) (A) (A) (A)
                 (A) (A) (A) (A) (A) (A) (A) (A) (A) (A) (A) (A)
                 (A) (A) (A) (A) (A) (A) (A) (A) (A) (A) (A) (A)
                 (A) (A) (A) (A) (A) (A) (A) (A) (A) (A) (A) (A)
                 (A) (A) (A) (A) (A) (A) (A) (A) (A) (A) (A) (A)
                 (A) (A) (A) (A) (A) (A) (A) (A) (A) (A) (A) (A)
                 (A) (A) (A) (A) (A) (A) (A) (A) (A) (A) (A) (A)
                 (A) (A) (A) (A) (A) (A) (A) (A) (A) (A) (A) (A)
                 (A) (A) (A) (A) (A) (A) (A) (A) (A) (A) (A) (A)
                 (A) (A) (A) (A) (A) (A) (A) (A) (A) (A) (A) (A)
                 (A) (A) (A) (A) (A) (A) (A) (A) (A) (A) (A) (A)
                 (A) (A) (A) (A) (A) (A) (A) (A) (A) (A) (A) (A)
                 (A) (A) (A) (A) (A) (A) (A) (A) (A) (A) (A) (A)
                 (A) (A) (A) (A) (A) (A) (A) (A) (A) (A) (A) (A)
 The electronic state is 1-A.
 Alpha  occ. eigenvalues --  -19.22802 -14.42719 -10.27472 -10.26726 -10.25505
 Alpha  occ. eigenvalues --  -10.25062 -10.22757 -10.22286 -10.21663 -10.21611
 Alpha  occ. eigenvalues --  -10.21007  -1.09524  -1.01374  -0.86854  -0.80953
 Alpha  occ. eigenvalues --   -0.77123  -0.74688  -0.71543  -0.63609  -0.61744
 Alpha  occ. eigenvalues --   -0.60116  -0.56328  -0.53183  -0.50672  -0.48108
 Alpha  occ. eigenvalues --   -0.47629  -0.45644  -0.44029  -0.43720  -0.41874
 Alpha  occ. eigenvalues --   -0.40867  -0.40532  -0.37454  -0.36443  -0.33684
 Alpha  occ. eigenvalues --   -0.31233  -0.29337  -0.22014  -0.21312
 Alpha virt. eigenvalues --   -0.01314  -0.00308   0.00611   0.01550   0.02758
 Alpha virt. eigenvalues --    0.03024   0.03252   0.04192   0.04779   0.05126
 Alpha virt. eigenvalues --    0.05676   0.05950   0.06945   0.07387   0.08090
 Alpha virt. eigenvalues --    0.09182   0.10333   0.10814   0.11006   0.11313
 Alpha virt. eigenvalues --    0.11519   0.12036   0.12350   0.13196   0.13510
 Alpha virt. eigenvalues --    0.13878   0.14083   0.14267   0.15249   0.15556
 Alpha virt. eigenvalues --    0.16280   0.16584   0.17611   0.17639   0.17788
 Alpha virt. eigenvalues --    0.18303   0.18303   0.19149   0.20118   0.20631
 Alpha virt. eigenvalues --    0.20665   0.21427   0.21531   0.21712   0.23204
 Alpha virt. eigenvalues --    0.23581   0.23879   0.25478   0.25590   0.26015
 Alpha virt. eigenvalues --    0.26352   0.27419   0.28536   0.28601   0.29970
 Alpha virt. eigenvalues --    0.30086   0.30170   0.31037   0.32223   0.32676
 Alpha virt. eigenvalues --    0.32936   0.33315   0.33880   0.35172   0.36018
 Alpha virt. eigenvalues --    0.37069   0.38333   0.38723   0.40303   0.41383
 Alpha virt. eigenvalues --    0.42793   0.45294   0.45781   0.47138   0.49619
 Alpha virt. eigenvalues --    0.51576   0.54527   0.55623   0.55870   0.55886
 Alpha virt. eigenvalues --    0.58454   0.59207   0.59900   0.60483   0.62636
 Alpha virt. eigenvalues --    0.62799   0.63709   0.64083   0.66093   0.66156
 Alpha virt. eigenvalues --    0.66934   0.69138   0.69629   0.70545   0.71124
 Alpha virt. eigenvalues --    0.73603   0.73806   0.75298   0.76882   0.78360
 Alpha virt. eigenvalues --    0.79999   0.80705   0.81708   0.82868   0.84205
 Alpha virt. eigenvalues --    0.86075   0.87119   0.87565   0.89224   0.90224
 Alpha virt. eigenvalues --    0.91718   0.93116   0.93929   0.94939   0.96548
 Alpha virt. eigenvalues --    0.96649   0.97749   1.01057   1.01908   1.03455
 Alpha virt. eigenvalues --    1.04094   1.04754   1.06194   1.08062   1.09205
 Alpha virt. eigenvalues --    1.09389   1.13072   1.15377   1.15953   1.16982
 Alpha virt. eigenvalues --    1.18792   1.18866   1.22375   1.29950   1.31092
 Alpha virt. eigenvalues --    1.31710   1.36054   1.40626   1.45044   1.46566
 Alpha virt. eigenvalues --    1.51776   1.52352   1.52883   1.55200   1.56435
 Alpha virt. eigenvalues --    1.56646   1.58160   1.59891   1.61200   1.62392
 Alpha virt. eigenvalues --    1.64191   1.67682   1.70320   1.70600   1.71997
 Alpha virt. eigenvalues --    1.73448   1.73759   1.75587   1.76761   1.77136
 Alpha virt. eigenvalues --    1.81270   1.83630   1.85746   1.86878   1.88627
 Alpha virt. eigenvalues --    1.89826   1.90626   1.92957   1.94477   1.95235
 Alpha virt. eigenvalues --    1.98097   1.99701   2.03792   2.05191   2.08074
 Alpha virt. eigenvalues --    2.09046   2.09850   2.11233   2.13645   2.14112
 Alpha virt. eigenvalues --    2.15589   2.19528   2.22279   2.24732   2.32756
 Alpha virt. eigenvalues --    2.35313   2.38488   2.40310   2.46433   2.48618
 Alpha virt. eigenvalues --    2.49245   2.51424   2.54357   2.55303   2.56247
 Alpha virt. eigenvalues --    2.57340   2.59115   2.62518   2.66807   2.68967
 Alpha virt. eigenvalues --    2.69130   2.70670   2.73935   2.75024   2.77184
 Alpha virt. eigenvalues --    2.77981   2.79293   2.80846   2.83028   2.83136
 Alpha virt. eigenvalues --    2.86204   2.87106   2.92930   2.93210   2.95627
 Alpha virt. eigenvalues --    2.95852   2.96000   2.99424   3.04769   3.09482
 Alpha virt. eigenvalues --    3.12541   3.13234   3.17408   3.19426   3.25219
 Alpha virt. eigenvalues --    3.27971   3.31862   3.38317   3.42362   3.47476
 Alpha virt. eigenvalues --    3.48866   3.55111   3.55767   3.65571   3.67036
 Alpha virt. eigenvalues --    3.71083   3.74600   3.80931   3.87793   3.92291
 Alpha virt. eigenvalues --    3.99703   4.10081   4.13544   4.15904   4.21626
 Alpha virt. eigenvalues --    4.27197   4.46548   4.87945   4.98119   5.09074
 Alpha virt. eigenvalues --    5.18868   5.47540   5.85467  23.72159  23.96136
 Alpha virt. eigenvalues --   24.03401  24.04495  24.10307  24.16488  24.22888
 Alpha virt. eigenvalues --   24.29221  24.31624  35.77732  50.11787
  Beta  occ. eigenvalues --  -19.22802 -14.42719 -10.27472 -10.26726 -10.25505
  Beta  occ. eigenvalues --  -10.25062 -10.22757 -10.22286 -10.21663 -10.21611
  Beta  occ. eigenvalues --  -10.21007  -1.09524  -1.01374  -0.86854  -0.80953
  Beta  occ. eigenvalues --   -0.77123  -0.74688  -0.71543  -0.63609  -0.61744
  Beta  occ. eigenvalues --   -0.60116  -0.56328  -0.53183  -0.50672  -0.48108
  Beta  occ. eigenvalues --   -0.47629  -0.45644  -0.44029  -0.43720  -0.41874
  Beta  occ. eigenvalues --   -0.40867  -0.40532  -0.37454  -0.36443  -0.33684
  Beta  occ. eigenvalues --   -0.31233  -0.29337  -0.22014  -0.21312
  Beta virt. eigenvalues --   -0.01314  -0.00308   0.00611   0.01550   0.02758
  Beta virt. eigenvalues --    0.03024   0.03252   0.04192   0.04779   0.05126
  Beta virt. eigenvalues --    0.05676   0.05950   0.06945   0.07387   0.08090
  Beta virt. eigenvalues --    0.09182   0.10333   0.10814   0.11006   0.11313
  Beta virt. eigenvalues --    0.11519   0.12036   0.12350   0.13196   0.13510
  Beta virt. eigenvalues --    0.13878   0.14083   0.14267   0.15249   0.15556
  Beta virt. eigenvalues --    0.16280   0.16584   0.17611   0.17639   0.17788
  Beta virt. eigenvalues --    0.18303   0.18303   0.19149   0.20118   0.20631
  Beta virt. eigenvalues --    0.20665   0.21427   0.21531   0.21712   0.23204
  Beta virt. eigenvalues --    0.23581   0.23879   0.25478   0.25590   0.26015
  Beta virt. eigenvalues --    0.26352   0.27419   0.28536   0.28601   0.29970
  Beta virt. eigenvalues --    0.30086   0.30170   0.31037   0.32223   0.32676
  Beta virt. eigenvalues --    0.32936   0.33315   0.33880   0.35172   0.36018
  Beta virt. eigenvalues --    0.37069   0.38333   0.38723   0.40303   0.41383
  Beta virt. eigenvalues --    0.42793   0.45294   0.45781   0.47138   0.49619
  Beta virt. eigenvalues --    0.51576   0.54527   0.55623   0.55870   0.55886
  Beta virt. eigenvalues --    0.58454   0.59207   0.59900   0.60483   0.62636
  Beta virt. eigenvalues --    0.62799   0.63709   0.64083   0.66093   0.66156
  Beta virt. eigenvalues --    0.66934   0.69138   0.69629   0.70545   0.71124
  Beta virt. eigenvalues --    0.73603   0.73806   0.75298   0.76882   0.78360
  Beta virt. eigenvalues --    0.79999   0.80705   0.81708   0.82868   0.84205
  Beta virt. eigenvalues --    0.86075   0.87119   0.87565   0.89224   0.90224
  Beta virt. eigenvalues --    0.91718   0.93116   0.93929   0.94939   0.96548
  Beta virt. eigenvalues --    0.96649   0.97749   1.01057   1.01908   1.03455
  Beta virt. eigenvalues --    1.04094   1.04754   1.06194   1.08062   1.09205
  Beta virt. eigenvalues --    1.09389   1.13072   1.15377   1.15953   1.16982
  Beta virt. eigenvalues --    1.18792   1.18866   1.22375   1.29950   1.31092
  Beta virt. eigenvalues --    1.31710   1.36054   1.40626   1.45044   1.46566
  Beta virt. eigenvalues --    1.51776   1.52352   1.52883   1.55200   1.56435
  Beta virt. eigenvalues --    1.56646   1.58160   1.59891   1.61200   1.62392
  Beta virt. eigenvalues --    1.64191   1.67682   1.70320   1.70600   1.71997
  Beta virt. eigenvalues --    1.73448   1.73759   1.75587   1.76761   1.77136
  Beta virt. eigenvalues --    1.81270   1.83630   1.85746   1.86878   1.88627
  Beta virt. eigenvalues --    1.89826   1.90626   1.92957   1.94477   1.95235
  Beta virt. eigenvalues --    1.98097   1.99701   2.03792   2.05191   2.08074
  Beta virt. eigenvalues --    2.09046   2.09850   2.11233   2.13645   2.14112
  Beta virt. eigenvalues --    2.15589   2.19528   2.22279   2.24732   2.32756
  Beta virt. eigenvalues --    2.35313   2.38488   2.40310   2.46433   2.48618
  Beta virt. eigenvalues --    2.49245   2.51424   2.54357   2.55303   2.56247
  Beta virt. eigenvalues --    2.57340   2.59115   2.62518   2.66807   2.68967
  Beta virt. eigenvalues --    2.69130   2.70670   2.73935   2.75024   2.77184
  Beta virt. eigenvalues --    2.77981   2.79293   2.80846   2.83028   2.83136
  Beta virt. eigenvalues --    2.86204   2.87106   2.92930   2.93210   2.95627
  Beta virt. eigenvalues --    2.95852   2.96000   2.99424   3.04769   3.09482
  Beta virt. eigenvalues --    3.12541   3.13234   3.17408   3.19426   3.25219
  Beta virt. eigenvalues --    3.27971   3.31862   3.38317   3.42362   3.47476
  Beta virt. eigenvalues --    3.48866   3.55111   3.55767   3.65571   3.67036
  Beta virt. eigenvalues --    3.71083   3.74600   3.80931   3.87793   3.92291
  Beta virt. eigenvalues --    3.99703   4.10081   4.13544   4.15904   4.21626
  Beta virt. eigenvalues --    4.27197   4.46548   4.87945   4.98119   5.09074
  Beta virt. eigenvalues --    5.18868   5.47540   5.85467  23.72159  23.96136
  Beta virt. eigenvalues --   24.03401  24.04495  24.10307  24.16488  24.22888
  Beta virt. eigenvalues --   24.29221  24.31624  35.77732  50.11787
          Condensed to atoms (all electrons):
               1          2          3          4          5          6
     1  C   12.547181  -0.153950   1.312204  -0.258674  -0.133855  -2.094816
     2  C   -0.153950  11.672627   1.570086  -0.196213  -0.327028  -2.479706
     3  C    1.312204   1.570086  10.213588  -0.197735   0.657508  -1.038531
     4  H   -0.258674  -0.196213  -0.197735   0.503689  -0.020576   0.078116
     5  C   -0.133855  -0.327028   0.657508  -0.020576   6.453228   0.298183
     6  C   -2.094816  -2.479706  -1.038531   0.078116   0.298183  15.803248
     7  H    0.005355   0.004277   0.025611  -0.000513  -0.024825  -0.110836
     8  H   -0.202071   0.509572   0.104909  -0.003191   0.027712   0.135288
     9  C   -1.321993   1.536517   1.231479  -0.017847   0.637307  -3.815909
    10  C    0.070542  -0.180298  -3.000118   0.052300  -1.037244  -0.539472
    11  H    0.128606   0.069034   0.560227  -0.024295   0.032874  -0.184333
    12  C   -4.152486  -6.865403  -5.165793   0.887562  -0.739031   1.863767
    13  N    0.082990   0.102647  -0.057360  -0.004757   0.233912  -0.308196
    14  O    0.457615   0.429929   0.147901  -0.037529   0.001763  -0.019634
    15  H    0.044384   0.025242  -0.013163   0.000462  -0.106908  -0.011496
    16  H   -0.003923  -0.007203  -0.031103  -0.000160   0.405340   0.034103
    17  C    0.209611  -0.421094  -0.018570   0.004028  -0.007255  -0.024719
    18  H    0.080807  -0.080272  -0.012949   0.002212  -0.001049  -0.003330
    19  H   -0.040507   0.058666   0.007978  -0.001166   0.000851  -0.003946
    20  H   -0.040508   0.058663   0.007977  -0.001165   0.000851  -0.003945
               7          8          9         10         11         12
     1  C    0.005355  -0.202071  -1.321993   0.070542   0.128606  -4.152486
     2  C    0.004277   0.509572   1.536517  -0.180298   0.069034  -6.865403
     3  C    0.025611   0.104909   1.231479  -3.000118   0.560227  -5.165793
     4  H   -0.000513  -0.003191  -0.017847   0.052300  -0.024295   0.887562
     5  C   -0.024825   0.027712   0.637307  -1.037244   0.032874  -0.739031
     6  C   -0.110836   0.135288  -3.815909  -0.539472  -0.184333   1.863767
     7  H    0.364420   0.000064   0.062812  -0.032652   0.004160  -0.015546
     8  H    0.000064   0.515770   0.097882  -0.181908   0.003335  -0.135503
     9  C    0.062812   0.097882  14.332526  -4.094749   0.024980  -3.621728
    10  C   -0.032652  -0.181908  -4.094749  11.563082  -0.092297   3.028245
    11  H    0.004160   0.003335   0.024980  -0.092297   0.531532  -0.262674
    12  C   -0.015546  -0.135503  -3.621728   3.028245  -0.262674  22.721781
    13  N    0.395567  -0.004432   0.151591  -0.204831   0.007826  -0.106076
    14  O    0.000162  -0.023502   0.011531  -0.022528   0.000724  -1.140642
    15  H    0.000300   0.001846  -0.007329   0.348709   0.000242   0.013156
    16  H   -0.003244  -0.000234  -0.049442   0.053045  -0.000594   0.006212
    17  C   -0.000217  -0.013333  -0.157230  -0.002654  -0.001196   0.135951
    18  H   -0.000029  -0.000193  -0.015302   0.005278  -0.000264   0.071549
    19  H    0.000026  -0.008307   0.009345  -0.004289   0.000005  -0.053017
    20  H    0.000026  -0.008307   0.009345  -0.004289   0.000005  -0.053014
              13         14         15         16         17         18
     1  C    0.082990   0.457615   0.044384  -0.003923   0.209611   0.080807
     2  C    0.102647   0.429929   0.025242  -0.007203  -0.421094  -0.080272
     3  C   -0.057360   0.147901  -0.013163  -0.031103  -0.018570  -0.012949
     4  H   -0.004757  -0.037529   0.000462  -0.000160   0.004028   0.002212
     5  C    0.233912   0.001763  -0.106908   0.405340  -0.007255  -0.001049
     6  C   -0.308196  -0.019634  -0.011496   0.034103  -0.024719  -0.003330
     7  H    0.395567   0.000162   0.000300  -0.003244  -0.000217  -0.000029
     8  H   -0.004432  -0.023502   0.001846  -0.000234  -0.013333  -0.000193
     9  C    0.151591   0.011531  -0.007329  -0.049442  -0.157230  -0.015302
    10  C   -0.204831  -0.022528   0.348709   0.053045  -0.002654   0.005278
    11  H    0.007826   0.000724   0.000242  -0.000594  -0.001196  -0.000264
    12  C   -0.106076  -1.140642   0.013156   0.006212   0.135951   0.071549
    13  N    6.852568   0.001487   0.019350  -0.073422   0.001069   0.000032
    14  O    0.001487   8.248061  -0.000582  -0.000087   0.193738  -0.084395
    15  H    0.019350  -0.000582   0.497925  -0.006472   0.003461   0.000234
    16  H   -0.073422  -0.000087  -0.006472   0.471767   0.000044   0.000010
    17  C    0.001069   0.193738   0.003461   0.000044   5.385719   0.399471
    18  H    0.000032  -0.084395   0.000234   0.000010   0.399471   0.479818
    19  H    0.000243  -0.034893   0.000145  -0.000027   0.401836  -0.022577
    20  H    0.000244  -0.034893   0.000145  -0.000027   0.401836  -0.022577
              19         20
     1  C   -0.040507  -0.040508
     2  C    0.058666   0.058663
     3  C    0.007978   0.007977
     4  H   -0.001166  -0.001165
     5  C    0.000851   0.000851
     6  C   -0.003946  -0.003945
     7  H    0.000026   0.000026
     8  H   -0.008307  -0.008307
     9  C    0.009345   0.009345
    10  C   -0.004289  -0.004289
    11  H    0.000005   0.000005
    12  C   -0.053017  -0.053014
    13  N    0.000243   0.000244
    14  O   -0.034893  -0.034893
    15  H    0.000145   0.000145
    16  H   -0.000027  -0.000027
    17  C    0.401836   0.401836
    18  H   -0.022577  -0.022577
    19  H    0.581299  -0.074641
    20  H   -0.074641   0.581298
          Atomic-Atomic Spin Densities.
               1          2          3          4          5          6
     1  C    0.000000   0.000000   0.000000   0.000000   0.000000   0.000000
     2  C    0.000000   0.000000   0.000000   0.000000   0.000000   0.000000
     3  C    0.000000   0.000000   0.000000   0.000000   0.000000   0.000000
     4  H    0.000000   0.000000   0.000000   0.000000   0.000000   0.000000
     5  C    0.000000   0.000000   0.000000   0.000000   0.000000   0.000000
     6  C    0.000000   0.000000   0.000000   0.000000   0.000000   0.000000
     7  H    0.000000   0.000000   0.000000   0.000000   0.000000   0.000000
     8  H    0.000000   0.000000   0.000000   0.000000   0.000000   0.000000
     9  C    0.000000   0.000000   0.000000   0.000000   0.000000   0.000000
    10  C    0.000000   0.000000   0.000000   0.000000   0.000000   0.000000
    11  H    0.000000   0.000000   0.000000   0.000000   0.000000   0.000000
    12  C    0.000000   0.000000   0.000000   0.000000   0.000000   0.000000
    13  N    0.000000   0.000000   0.000000   0.000000   0.000000   0.000000
    14  O    0.000000   0.000000   0.000000   0.000000   0.000000   0.000000
    15  H    0.000000   0.000000   0.000000   0.000000   0.000000   0.000000
    16  H    0.000000   0.000000   0.000000   0.000000   0.000000   0.000000
    17  C    0.000000   0.000000   0.000000   0.000000   0.000000   0.000000
    18  H    0.000000   0.000000   0.000000   0.000000   0.000000   0.000000
    19  H    0.000000   0.000000   0.000000   0.000000   0.000000   0.000000
    20  H    0.000000   0.000000   0.000000   0.000000   0.000000   0.000000
               7          8          9         10         11         12
     1  C    0.000000   0.000000   0.000000   0.000000   0.000000   0.000000
     2  C    0.000000   0.000000   0.000000   0.000000   0.000000   0.000000
     3  C    0.000000   0.000000   0.000000   0.000000   0.000000   0.000000
     4  H    0.000000   0.000000   0.000000   0.000000   0.000000   0.000000
     5  C    0.000000   0.000000   0.000000   0.000000   0.000000   0.000000
     6  C    0.000000   0.000000   0.000000   0.000000   0.000000   0.000000
     7  H    0.000000   0.000000   0.000000   0.000000   0.000000   0.000000
     8  H    0.000000   0.000000   0.000000   0.000000   0.000000   0.000000
     9  C    0.000000   0.000000   0.000000   0.000000   0.000000   0.000000
    10  C    0.000000   0.000000   0.000000   0.000000   0.000000   0.000000
    11  H    0.000000   0.000000   0.000000   0.000000   0.000000   0.000000
    12  C    0.000000   0.000000   0.000000   0.000000   0.000000   0.000000
    13  N    0.000000   0.000000   0.000000   0.000000   0.000000   0.000000
    14  O    0.000000   0.000000   0.000000   0.000000   0.000000   0.000000
    15  H    0.000000   0.000000   0.000000   0.000000   0.000000   0.000000
    16  H    0.000000   0.000000   0.000000   0.000000   0.000000   0.000000
    17  C    0.000000   0.000000   0.000000   0.000000   0.000000   0.000000
    18  H    0.000000   0.000000   0.000000   0.000000   0.000000   0.000000
    19  H    0.000000   0.000000   0.000000   0.000000   0.000000   0.000000
    20  H    0.000000   0.000000   0.000000   0.000000   0.000000   0.000000
              13         14         15         16         17         18
     1  C    0.000000   0.000000   0.000000   0.000000   0.000000   0.000000
     2  C    0.000000   0.000000   0.000000   0.000000   0.000000   0.000000
     3  C    0.000000   0.000000   0.000000   0.000000   0.000000   0.000000
     4  H    0.000000   0.000000   0.000000   0.000000   0.000000   0.000000
     5  C    0.000000   0.000000   0.000000   0.000000   0.000000   0.000000
     6  C    0.000000   0.000000   0.000000   0.000000   0.000000   0.000000
     7  H    0.000000   0.000000   0.000000   0.000000   0.000000   0.000000
     8  H    0.000000   0.000000   0.000000   0.000000   0.000000   0.000000
     9  C    0.000000   0.000000   0.000000   0.000000   0.000000   0.000000
    10  C    0.000000   0.000000   0.000000   0.000000   0.000000   0.000000
    11  H    0.000000   0.000000   0.000000   0.000000   0.000000   0.000000
    12  C    0.000000   0.000000   0.000000   0.000000   0.000000   0.000000
    13  N    0.000000   0.000000   0.000000   0.000000   0.000000   0.000000
    14  O    0.000000   0.000000   0.000000   0.000000   0.000000   0.000000
    15  H    0.000000   0.000000   0.000000   0.000000   0.000000   0.000000
    16  H    0.000000   0.000000   0.000000   0.000000   0.000000   0.000000
    17  C    0.000000   0.000000   0.000000   0.000000   0.000000   0.000000
    18  H    0.000000   0.000000   0.000000   0.000000   0.000000   0.000000
    19  H    0.000000   0.000000   0.000000   0.000000   0.000000   0.000000
    20  H    0.000000   0.000000   0.000000   0.000000   0.000000   0.000000
              19         20
     1  C    0.000000   0.000000
     2  C    0.000000   0.000000
     3  C    0.000000   0.000000
     4  H    0.000000   0.000000
     5  C    0.000000   0.000000
     6  C    0.000000   0.000000
     7  H    0.000000   0.000000
     8  H    0.000000   0.000000
     9  C    0.000000   0.000000
    10  C    0.000000   0.000000
    11  H    0.000000   0.000000
    12  C    0.000000   0.000000
    13  N    0.000000   0.000000
    14  O    0.000000   0.000000
    15  H    0.000000   0.000000
    16  H    0.000000   0.000000
    17  C    0.000000   0.000000
    18  H    0.000000   0.000000
    19  H    0.000000   0.000000
    20  H    0.000000   0.000000
 Mulliken charges and spin densities:
               1          2
     1  C   -0.536513   0.000000
     2  C    0.673906   0.000000
     3  C   -0.304147   0.000000
     4  H    0.235452   0.000000
     5  C   -0.351758   0.000000
     6  C   -1.573835   0.000000
     7  H    0.325082   0.000000
     8  H    0.184603   0.000000
     9  C    0.996214   0.000000
    10  C    0.276128   0.000000
    11  H    0.202101   0.000000
    12  C   -0.417309   0.000000
    13  N   -0.090451   0.000000
    14  O   -0.094225   0.000000
    15  H    0.190352   0.000000
    16  H    0.205416   0.000000
    17  C   -0.490496   0.000000
    18  H    0.203527   0.000000
    19  H    0.182977   0.000000
    20  H    0.182977   0.000000
 Sum of Mulliken charges =   0.00000   0.00000
 Mulliken charges and spin densities with hydrogens summed into heavy atoms:
               1          2
     1  C   -0.536513   0.000000
     2  C    0.858509   0.000000
     3  C   -0.102046   0.000000
     5  C   -0.146342   0.000000
     6  C   -1.573835   0.000000
     9  C    0.996214   0.000000
    10  C    0.466479   0.000000
    12  C   -0.181857   0.000000
    13  N    0.234630   0.000000
    14  O   -0.094225   0.000000
    17  C    0.078985   0.000000
 APT charges:
               1
     1  C    0.569663
     2  C   -0.134027
     3  C    0.093654
     4  H    0.061327
     5  C    0.089493
     6  C    0.048192
     7  H    0.236048
     8  H    0.056746
     9  C    0.071414
    10  C   -0.177826
    11  H    0.036958
    12  C   -0.176659
    13  N   -0.442625
    14  O   -0.905138
    15  H    0.064070
    16  H    0.077744
    17  C    0.491962
    18  H    0.000726
    19  H   -0.030861
    20  H   -0.030861
 Sum of APT charges =   0.00000
 APT charges with hydrogens summed into heavy atoms:
               1
     1  C    0.569663
     2  C   -0.077281
     3  C    0.130613
     5  C    0.167237
     6  C    0.048192
     9  C    0.071414
    10  C   -0.113756
    12  C   -0.115332
    13  N   -0.206577
    14  O   -0.905138
    17  C    0.430966
 Electronic spatial extent (au):  <R**2>=           1821.5268
 Charge=              0.0000 electrons
 Dipole moment (field-independent basis, Debye):
    X=              1.7022    Y=             -0.1986    Z=              0.0000  Tot=              1.7137
 Quadrupole moment (field-independent basis, Debye-Ang):
   XX=            -50.3347   YY=            -57.2551   ZZ=            -69.9636
   XY=              8.2038   XZ=              0.0000   YZ=              0.0000
 Traceless Quadrupole moment (field-independent basis, Debye-Ang):
   XX=              8.8498   YY=              1.9294   ZZ=            -10.7792
   XY=              8.2038   XZ=              0.0000   YZ=              0.0000
 Octapole moment (field-independent basis, Debye-Ang**2):
  XXX=             24.8552  YYY=              6.8124  ZZZ=              0.0000  XYY=              3.3948
  XXY=             -3.4757  XXZ=              0.0001  XZZ=             -8.5610  YZZ=              0.0640
  YYZ=              0.0000  XYZ=              0.0000
 Hexadecapole moment (field-independent basis, Debye-Ang**3):
 XXXX=          -1495.2992 YYYY=           -519.1519 ZZZZ=            -86.8192 XXXY=             86.4115
 XXXZ=              0.0001 YYYX=             11.9707 YYYZ=              0.0000 ZZZX=              0.0000
 ZZZY=              0.0000 XXYY=           -352.3742 XXZZ=           -335.9950 YYZZ=           -122.3372
 XXYZ=              0.0001 YYXZ=              0.0001 ZZXY=              9.5511
 N-N= 5.729616399716D+02 E-N=-2.259486668368D+03  KE= 4.760593814157D+02
  Exact polarizability: 161.585  -6.162 119.240   0.000   0.000  67.184
 Approx polarizability: 235.176 -12.070 192.227   0.000   0.000  98.356
                          Isotropic Fermi Contact Couplings
        Atom                 a.u.       MegaHertz       Gauss      10(-4) cm-1
     1  C(13)              0.00000       0.00000       0.00000       0.00000
     2  C(13)              0.00000       0.00000       0.00000       0.00000
     3  C(13)              0.00000       0.00000       0.00000       0.00000
     4  H(1)               0.00000       0.00000       0.00000       0.00000
     5  C(13)              0.00000       0.00000       0.00000       0.00000
     6  C(13)              0.00000       0.00000       0.00000       0.00000
     7  H(1)               0.00000       0.00000       0.00000       0.00000
     8  H(1)               0.00000       0.00000       0.00000       0.00000
     9  C(13)              0.00000       0.00000       0.00000       0.00000
    10  C(13)              0.00000       0.00000       0.00000       0.00000
    11  H(1)               0.00000       0.00000       0.00000       0.00000
    12  C(13)              0.00000       0.00000       0.00000       0.00000
    13  N(14)              0.00000       0.00000       0.00000       0.00000
    14  O(17)              0.00000       0.00000       0.00000       0.00000
    15  H(1)               0.00000       0.00000       0.00000       0.00000
    16  H(1)               0.00000       0.00000       0.00000       0.00000
    17  C(13)              0.00000       0.00000       0.00000       0.00000
    18  H(1)               0.00000       0.00000       0.00000       0.00000
    19  H(1)               0.00000       0.00000       0.00000       0.00000
    20  H(1)               0.00000       0.00000       0.00000       0.00000
 --------------------------------------------------------
       Center         ----  Spin Dipole Couplings  ----
                      3XX-RR        3YY-RR        3ZZ-RR
 --------------------------------------------------------
     1   Atom        0.000000      0.000000      0.000000
     2   Atom        0.000000      0.000000      0.000000
     3   Atom        0.000000      0.000000      0.000000
     4   Atom        0.000000      0.000000      0.000000
     5   Atom        0.000000      0.000000      0.000000
     6   Atom        0.000000      0.000000      0.000000
     7   Atom        0.000000      0.000000      0.000000
     8   Atom        0.000000      0.000000      0.000000
     9   Atom        0.000000      0.000000      0.000000
    10   Atom        0.000000      0.000000      0.000000
    11   Atom        0.000000      0.000000      0.000000
    12   Atom        0.000000      0.000000      0.000000
    13   Atom        0.000000      0.000000      0.000000
    14   Atom        0.000000      0.000000      0.000000
    15   Atom        0.000000      0.000000      0.000000
    16   Atom        0.000000      0.000000      0.000000
    17   Atom        0.000000      0.000000      0.000000
    18   Atom        0.000000      0.000000      0.000000
    19   Atom        0.000000      0.000000      0.000000
    20   Atom        0.000000      0.000000      0.000000
 --------------------------------------------------------
                        XY            XZ            YZ
 --------------------------------------------------------
     1   Atom        0.000000      0.000000      0.000000
     2   Atom        0.000000      0.000000      0.000000
     3   Atom        0.000000      0.000000      0.000000
     4   Atom        0.000000      0.000000      0.000000
     5   Atom        0.000000      0.000000      0.000000
     6   Atom        0.000000      0.000000      0.000000
     7   Atom        0.000000      0.000000      0.000000
     8   Atom        0.000000      0.000000      0.000000
     9   Atom        0.000000      0.000000      0.000000
    10   Atom        0.000000      0.000000      0.000000
    11   Atom        0.000000      0.000000      0.000000
    12   Atom        0.000000      0.000000      0.000000
    13   Atom        0.000000      0.000000      0.000000
    14   Atom        0.000000      0.000000      0.000000
    15   Atom        0.000000      0.000000      0.000000
    16   Atom        0.000000      0.000000      0.000000
    17   Atom        0.000000      0.000000      0.000000
    18   Atom        0.000000      0.000000      0.000000
    19   Atom        0.000000      0.000000      0.000000
    20   Atom        0.000000      0.000000      0.000000
 --------------------------------------------------------


 ---------------------------------------------------------------------------------
              Anisotropic Spin Dipole Couplings in Principal Axis System
 ---------------------------------------------------------------------------------

       Atom             a.u.   MegaHertz   Gauss  10(-4) cm-1        Axes

              Baa     0.0000     0.000     0.000     0.000  1.0000  0.0000  0.0000
     1 C(13)  Bbb     0.0000     0.000     0.000     0.000  0.0000  1.0000  0.0000
              Bcc     0.0000     0.000     0.000     0.000  0.0000  0.0000  1.0000
 
              Baa     0.0000     0.000     0.000     0.000  1.0000  0.0000  0.0000
     2 C(13)  Bbb     0.0000     0.000     0.000     0.000  0.0000  1.0000  0.0000
              Bcc     0.0000     0.000     0.000     0.000  0.0000  0.0000  1.0000
 
              Baa     0.0000     0.000     0.000     0.000  1.0000  0.0000  0.0000
     3 C(13)  Bbb     0.0000     0.000     0.000     0.000  0.0000  1.0000  0.0000
              Bcc     0.0000     0.000     0.000     0.000  0.0000  0.0000  1.0000
 
              Baa     0.0000     0.000     0.000     0.000  1.0000  0.0000  0.0000
     4 H(1)   Bbb     0.0000     0.000     0.000     0.000  0.0000  1.0000  0.0000
              Bcc     0.0000     0.000     0.000     0.000  0.0000  0.0000  1.0000
 
              Baa     0.0000     0.000     0.000     0.000  1.0000  0.0000  0.0000
     5 C(13)  Bbb     0.0000     0.000     0.000     0.000  0.0000  1.0000  0.0000
              Bcc     0.0000     0.000     0.000     0.000  0.0000  0.0000  1.0000
 
              Baa     0.0000     0.000     0.000     0.000  1.0000  0.0000  0.0000
     6 C(13)  Bbb     0.0000     0.000     0.000     0.000  0.0000  1.0000  0.0000
              Bcc     0.0000     0.000     0.000     0.000  0.0000  0.0000  1.0000
 
              Baa     0.0000     0.000     0.000     0.000  1.0000  0.0000  0.0000
     7 H(1)   Bbb     0.0000     0.000     0.000     0.000  0.0000  1.0000  0.0000
              Bcc     0.0000     0.000     0.000     0.000  0.0000  0.0000  1.0000
 
              Baa     0.0000     0.000     0.000     0.000  1.0000  0.0000  0.0000
     8 H(1)   Bbb     0.0000     0.000     0.000     0.000  0.0000  1.0000  0.0000
              Bcc     0.0000     0.000     0.000     0.000  0.0000  0.0000  1.0000
 
              Baa     0.0000     0.000     0.000     0.000  1.0000  0.0000  0.0000
     9 C(13)  Bbb     0.0000     0.000     0.000     0.000  0.0000  1.0000  0.0000
              Bcc     0.0000     0.000     0.000     0.000  0.0000  0.0000  1.0000
 
              Baa     0.0000     0.000     0.000     0.000  1.0000  0.0000  0.0000
    10 C(13)  Bbb     0.0000     0.000     0.000     0.000  0.0000  1.0000  0.0000
              Bcc     0.0000     0.000     0.000     0.000  0.0000  0.0000  1.0000
 
              Baa     0.0000     0.000     0.000     0.000  1.0000  0.0000  0.0000
    11 H(1)   Bbb     0.0000     0.000     0.000     0.000  0.0000  1.0000  0.0000
              Bcc     0.0000     0.000     0.000     0.000  0.0000  0.0000  1.0000
 
              Baa     0.0000     0.000     0.000     0.000  1.0000  0.0000  0.0000
    12 C(13)  Bbb     0.0000     0.000     0.000     0.000  0.0000  1.0000  0.0000
              Bcc     0.0000     0.000     0.000     0.000  0.0000  0.0000  1.0000
 
              Baa     0.0000     0.000     0.000     0.000  1.0000  0.0000  0.0000
    13 N(14)  Bbb     0.0000     0.000     0.000     0.000  0.0000  1.0000  0.0000
              Bcc     0.0000     0.000     0.000     0.000  0.0000  0.0000  1.0000
 
              Baa     0.0000     0.000     0.000     0.000  1.0000  0.0000  0.0000
    14 O(17)  Bbb     0.0000     0.000     0.000     0.000  0.0000  1.0000  0.0000
              Bcc     0.0000     0.000     0.000     0.000  0.0000  0.0000  1.0000
 
              Baa     0.0000     0.000     0.000     0.000  1.0000  0.0000  0.0000
    15 H(1)   Bbb     0.0000     0.000     0.000     0.000  0.0000  1.0000  0.0000
              Bcc     0.0000     0.000     0.000     0.000  0.0000  0.0000  1.0000
 
              Baa     0.0000     0.000     0.000     0.000  1.0000  0.0000  0.0000
    16 H(1)   Bbb     0.0000     0.000     0.000     0.000  0.0000  1.0000  0.0000
              Bcc     0.0000     0.000     0.000     0.000  0.0000  0.0000  1.0000
 
              Baa     0.0000     0.000     0.000     0.000  1.0000  0.0000  0.0000
    17 C(13)  Bbb     0.0000     0.000     0.000     0.000  0.0000  1.0000  0.0000
              Bcc     0.0000     0.000     0.000     0.000  0.0000  0.0000  1.0000
 
              Baa     0.0000     0.000     0.000     0.000  1.0000  0.0000  0.0000
    18 H(1)   Bbb     0.0000     0.000     0.000     0.000  0.0000  1.0000  0.0000
              Bcc     0.0000     0.000     0.000     0.000  0.0000  0.0000  1.0000
 
              Baa     0.0000     0.000     0.000     0.000  1.0000  0.0000  0.0000
    19 H(1)   Bbb     0.0000     0.000     0.000     0.000  0.0000  1.0000  0.0000
              Bcc     0.0000     0.000     0.000     0.000  0.0000  0.0000  1.0000
 
              Baa     0.0000     0.000     0.000     0.000  1.0000  0.0000  0.0000
    20 H(1)   Bbb     0.0000     0.000     0.000     0.000  0.0000  1.0000  0.0000
              Bcc     0.0000     0.000     0.000     0.000  0.0000  0.0000  1.0000
 

 ---------------------------------------------------------------------------------

 Calling FoFJK, ICntrl=    100127 FMM=F ISym2X=0 I1Cent= 0 IOpClX= 1 NMat=1 NMatS=1 NMatT=0.
 Full mass-weighted force constant matrix:
 Low frequencies ---   -6.6226   -0.0008   -0.0007   -0.0006    6.6959   10.5117
 Low frequencies ---   84.6267  151.9275  215.2974
 Diagonal vibrational polarizability:
       12.1329466       4.1931912      53.9721058
 Harmonic frequencies (cm**-1), IR intensities (KM/Mole), Raman scattering
 activities (A**4/AMU), depolarization ratios for plane and unpolarized
 incident light, reduced masses (AMU), force constants (mDyne/A),
 and normal coordinates:
                      1                      2                      3
                      A                      A                      A
 Frequencies --     84.6179               151.9235               215.2974
 Red. masses --      3.1719                 3.9833                 3.3042
 Frc consts  --      0.0134                 0.0542                 0.0902
 IR Inten    --      7.2199                 0.3613                 3.6381
  Atom  AN      X      Y      Z        X      Y      Z        X      Y      Z
     1   6     0.00   0.00  -0.12     0.00   0.00   0.00     0.02  -0.11   0.00
     2   6     0.00   0.00  -0.17     0.00   0.00   0.17     0.04  -0.11   0.00
     3   6     0.00   0.00   0.04     0.00   0.00   0.13    -0.02  -0.06   0.00
     4   1     0.00   0.00  -0.01     0.00   0.00   0.02    -0.04  -0.14   0.00
     5   6     0.00   0.00   0.06     0.00   0.00  -0.19     0.10   0.10   0.00
     6   6     0.00   0.00   0.03     0.00   0.00   0.11     0.00  -0.03   0.00
     7   1     0.00   0.00   0.23     0.00   0.00  -0.25    -0.06   0.13   0.00
     8   1     0.00   0.00  -0.25     0.00   0.00   0.16     0.03  -0.12   0.00
     9   6     0.00   0.00  -0.10     0.00   0.00   0.18     0.06  -0.07   0.00
    10   6     0.00   0.00  -0.08     0.00   0.00   0.01     0.14   0.02   0.00
    11   1     0.00   0.00   0.13     0.00   0.00   0.14    -0.05  -0.05   0.00
    12   6     0.00   0.00  -0.04     0.00   0.00   0.07     0.00  -0.11   0.00
    13   7     0.00   0.00   0.14     0.00   0.00  -0.11     0.00   0.07   0.00
    14   8     0.00   0.00  -0.13     0.00   0.00  -0.30     0.01   0.03   0.00
    15   1     0.00   0.00  -0.16     0.00   0.00  -0.01     0.24   0.02   0.00
    16   1     0.00   0.00   0.12     0.00   0.00  -0.39     0.12   0.17   0.00
    17   6     0.00   0.00   0.29     0.00   0.00   0.04    -0.27   0.19   0.00
    18   1     0.00   0.00   0.44     0.00   0.00  -0.23    -0.23   0.45   0.00
    19   1    -0.18  -0.22   0.37     0.15  -0.33   0.30    -0.42   0.12   0.00
    20   1     0.18   0.22   0.37    -0.15   0.33   0.30    -0.42   0.12   0.00
                      4                      5                      6
                      A                      A                      A
 Frequencies --    224.5401               249.0330               371.2532
 Red. masses --      4.4063                 1.1520                 4.3020
 Frc consts  --      0.1309                 0.0421                 0.3494
 IR Inten    --      8.0056                 0.2739                 4.4110
  Atom  AN      X      Y      Z        X      Y      Z        X      Y      Z
     1   6     0.00   0.00   0.00     0.00   0.00  -0.03    -0.05  -0.02   0.00
     2   6     0.00   0.00  -0.14     0.00   0.00   0.00     0.07   0.09   0.00
     3   6     0.00   0.00   0.08     0.00   0.00   0.02     0.03   0.08   0.00
     4   1     0.00   0.00   0.55     0.00   0.00  -0.02     0.02   0.00   0.00
     5   6     0.00   0.00   0.15     0.00   0.00  -0.03     0.00  -0.13   0.00
     6   6     0.00   0.00  -0.22     0.00   0.00   0.04     0.17   0.15   0.00
     7   1     0.00   0.00   0.00     0.00   0.00  -0.07     0.33  -0.18   0.00
     8   1     0.00   0.00  -0.21     0.00   0.00  -0.05     0.19   0.04   0.00
     9   6     0.00   0.00  -0.09     0.00   0.00   0.07     0.05   0.20   0.00
    10   6     0.00   0.00   0.22     0.00   0.00   0.04    -0.10   0.05   0.00
    11   1     0.00   0.00   0.23     0.00   0.00   0.01    -0.12   0.14   0.00
    12   6     0.00   0.00   0.27     0.00   0.00  -0.01     0.00  -0.02   0.00
    13   7     0.00   0.00  -0.25     0.00   0.00  -0.03     0.19  -0.06   0.00
    14   8     0.00   0.00  -0.08     0.00   0.00  -0.04    -0.07  -0.15   0.00
    15   1     0.00   0.00   0.44     0.00   0.00   0.05    -0.30   0.06   0.00
    16   1     0.00   0.00   0.31     0.00   0.00  -0.09    -0.04  -0.28   0.00
    17   6     0.00   0.00   0.01     0.00   0.00  -0.01    -0.24  -0.10   0.00
    18   1     0.00   0.00   0.02     0.00   0.00   0.58    -0.21   0.09   0.00
    19   1    -0.02  -0.06   0.05    -0.44   0.21  -0.27    -0.35  -0.14   0.00
    20   1     0.02   0.06   0.05     0.44  -0.21  -0.27    -0.34  -0.14   0.00
                      7                      8                      9
                      A                      A                      A
 Frequencies --    371.2604               378.2479               433.5010
 Red. masses --      3.8573                 1.3560                 2.9303
 Frc consts  --      0.3133                 0.1143                 0.3244
 IR Inten    --      4.7947                67.8907                 8.3035
  Atom  AN      X      Y      Z        X      Y      Z        X      Y      Z
     1   6     0.00   0.00   0.16     0.00   0.00   0.06     0.00   0.00  -0.13
     2   6     0.00   0.00   0.22     0.00   0.00   0.09     0.00   0.00   0.16
     3   6     0.00   0.00  -0.10     0.00   0.00  -0.04     0.00   0.00   0.25
     4   1     0.00   0.00   0.17     0.00   0.00  -0.04     0.00   0.00  -0.15
     5   6     0.00   0.00   0.07     0.00   0.00   0.05     0.00   0.00   0.05
     6   6     0.00   0.00  -0.20     0.00   0.00   0.00     0.00   0.00  -0.10
     7   1     0.00   0.00  -0.64     0.00   0.00   0.94     0.00   0.00   0.02
     8   1     0.00   0.00   0.32     0.00   0.00   0.08     0.00   0.00   0.58
     9   6     0.00   0.00  -0.15     0.00   0.00  -0.01     0.00   0.00  -0.13
    10   6     0.00   0.00  -0.13     0.00   0.00  -0.07     0.00   0.00  -0.01
    11   1     0.00   0.00  -0.08     0.00   0.00  -0.13     0.00   0.00   0.67
    12   6     0.00   0.00   0.13     0.00   0.00   0.02     0.00   0.00  -0.18
    13   7     0.00   0.00   0.19     0.00   0.00  -0.08     0.00   0.00  -0.06
    14   8     0.00   0.00  -0.15     0.00   0.00  -0.05     0.00   0.00   0.04
    15   1     0.00   0.00  -0.06     0.00   0.00  -0.19     0.00   0.00   0.03
    16   1     0.00   0.00   0.19     0.00   0.00   0.13     0.00   0.00   0.11
    17   6     0.00   0.00  -0.02     0.00   0.00  -0.01     0.00   0.00   0.00
    18   1     0.00   0.00   0.25     0.00   0.00   0.07     0.00   0.00   0.05
    19   1    -0.21   0.01  -0.09    -0.06   0.00  -0.02    -0.01   0.05  -0.03
    20   1     0.21  -0.01  -0.09     0.06   0.00  -0.02     0.01  -0.05  -0.03
                     10                     11                     12
                      A                      A                      A
 Frequencies --    462.6053               528.8336               608.2752
 Red. masses --      5.2650                 4.2784                 2.4594
 Frc consts  --      0.6639                 0.7050                 0.5361
 IR Inten    --      2.9680                 2.1227                 7.5276
  Atom  AN      X      Y      Z        X      Y      Z        X      Y      Z
     1   6    -0.17   0.19   0.00     0.15   0.12   0.00     0.00   0.00   0.16
     2   6    -0.07   0.20   0.00     0.03   0.08   0.00     0.00   0.00  -0.03
     3   6     0.04  -0.14   0.00     0.08   0.08   0.00     0.00   0.00   0.08
     4   1     0.20   0.33   0.00     0.07   0.23   0.00     0.00   0.00  -0.44
     5   6     0.18   0.03   0.00    -0.06   0.03   0.00     0.00   0.00   0.16
     6   6     0.05  -0.14   0.00    -0.11  -0.05   0.00     0.00   0.00   0.15
     7   1    -0.01   0.07   0.00    -0.19   0.04   0.00     0.00   0.00  -0.55
     8   1    -0.20   0.25   0.00    -0.20   0.18   0.00     0.00   0.00  -0.30
     9   6     0.05  -0.12   0.00    -0.01  -0.08   0.00     0.00   0.00  -0.03
    10   6     0.22  -0.06   0.00     0.00  -0.06   0.00     0.00   0.00  -0.13
    11   1     0.17  -0.19   0.00     0.30  -0.01   0.00     0.00   0.00  -0.18
    12   6    -0.02   0.14   0.00     0.06   0.22   0.00     0.00   0.00  -0.06
    13   7     0.07   0.00   0.00    -0.14   0.00   0.00     0.00   0.00  -0.15
    14   8    -0.25   0.01   0.00     0.18  -0.22   0.00     0.00   0.00  -0.03
    15   1     0.39  -0.07   0.00     0.05  -0.06   0.00     0.00   0.00   0.03
    16   1     0.20   0.10   0.00    -0.04   0.13   0.00     0.00   0.00   0.50
    17   6    -0.09  -0.13   0.00    -0.13  -0.09   0.00     0.00   0.00   0.00
    18   1    -0.12  -0.28   0.00    -0.06   0.33   0.00     0.00   0.00   0.00
    19   1     0.00  -0.08   0.00    -0.37  -0.18  -0.01    -0.01  -0.02   0.01
    20   1     0.00  -0.08   0.00    -0.37  -0.18   0.01     0.01   0.02   0.01
                     13                     14                     15
                      A                      A                      A
 Frequencies --    613.7619               634.3448               726.5848
 Red. masses --      5.8058                 3.2354                 1.4534
 Frc consts  --      1.2886                 0.7670                 0.4521
 IR Inten    --      1.1599                 0.4955                67.3981
  Atom  AN      X      Y      Z        X      Y      Z        X      Y      Z
     1   6    -0.04  -0.04   0.00     0.00   0.00   0.27     0.00   0.00   0.07
     2   6    -0.17  -0.12   0.00     0.00   0.00  -0.05     0.00   0.00  -0.04
     3   6     0.33  -0.02   0.00     0.00   0.00   0.10     0.00   0.00   0.04
     4   1     0.47  -0.03   0.00     0.00   0.00  -0.60     0.00   0.00  -0.13
     5   6    -0.07   0.14   0.00     0.00   0.00  -0.15     0.00   0.00   0.12
     6   6     0.05  -0.05   0.00     0.00   0.00  -0.02     0.00   0.00  -0.11
     7   1    -0.13   0.20   0.00     0.00   0.00   0.31     0.00   0.00  -0.10
     8   1    -0.12  -0.14   0.00     0.00   0.00  -0.23     0.00   0.00  -0.13
     9   6    -0.16   0.03   0.00     0.00   0.00  -0.21     0.00   0.00   0.07
    10   6    -0.11   0.17   0.00     0.00   0.00   0.19     0.00   0.00   0.04
    11   1     0.40  -0.05   0.00     0.00   0.00  -0.10     0.00   0.00   0.05
    12   6     0.35  -0.13   0.00     0.00   0.00  -0.09     0.00   0.00  -0.03
    13   7    -0.02   0.11   0.00     0.00   0.00   0.07     0.00   0.00  -0.01
    14   8    -0.10   0.00   0.00     0.00   0.00  -0.05     0.00   0.00   0.00
    15   1    -0.03   0.17   0.00     0.00   0.00   0.39     0.00   0.00  -0.77
    16   1    -0.10   0.06   0.00     0.00   0.00  -0.35     0.00   0.00  -0.56
    17   6    -0.06  -0.10   0.00     0.00   0.00   0.00     0.00   0.00   0.00
    18   1    -0.07  -0.17   0.00     0.00   0.00   0.03     0.00   0.00   0.00
    19   1    -0.01  -0.08   0.00    -0.03  -0.02   0.00     0.00   0.00   0.00
    20   1    -0.01  -0.08   0.00     0.03   0.02   0.00     0.00   0.00   0.00
                     16                     17                     18
                      A                      A                      A
 Frequencies --    761.2762               764.3517               809.4886
 Red. masses --      5.8792                 2.5259                 1.6087
 Frc consts  --      2.0075                 0.8695                 0.6211
 IR Inten    --      4.0427                12.0412                24.2971
  Atom  AN      X      Y      Z        X      Y      Z        X      Y      Z
     1   6     0.01  -0.06   0.00     0.00   0.00  -0.09     0.00   0.00   0.11
     2   6     0.00  -0.18   0.00     0.00   0.00   0.01     0.00   0.00   0.00
     3   6     0.09   0.46   0.00     0.00   0.00  -0.05     0.00   0.00  -0.12
     4   1    -0.15  -0.13   0.00     0.00   0.00  -0.06     0.00   0.00   0.68
     5   6     0.10  -0.08   0.00     0.00   0.00   0.07     0.00   0.00   0.00
     6   6    -0.09   0.14   0.00     0.00   0.00   0.21     0.00   0.00   0.10
     7   1    -0.07  -0.16   0.00     0.00   0.00  -0.14     0.00   0.00  -0.03
     8   1     0.04  -0.20   0.00     0.00   0.00   0.61     0.00   0.00  -0.10
     9   6     0.05  -0.06   0.00     0.00   0.00  -0.23     0.00   0.00  -0.05
    10   6     0.15  -0.14   0.00     0.00   0.00   0.10     0.00   0.00   0.03
    11   1     0.04   0.48   0.00     0.00   0.00  -0.36     0.00   0.00   0.68
    12   6     0.09   0.06   0.00     0.00   0.00   0.11     0.00   0.00  -0.12
    13   7    -0.11  -0.13   0.00     0.00   0.00  -0.06     0.00   0.00  -0.02
    14   8    -0.17   0.08   0.00     0.00   0.00   0.00     0.00   0.00  -0.02
    15   1     0.16  -0.14   0.00     0.00   0.00  -0.37     0.00   0.00  -0.11
    16   1     0.17   0.16   0.00     0.00   0.00  -0.44     0.00   0.00  -0.04
    17   6    -0.06  -0.07   0.00     0.00   0.00   0.00     0.00   0.00   0.00
    18   1    -0.10  -0.31   0.00     0.00   0.00   0.03     0.00   0.00   0.00
    19   1     0.08  -0.01   0.01     0.00   0.01  -0.01    -0.01  -0.01   0.00
    20   1     0.08  -0.01  -0.01     0.00  -0.01  -0.01     0.01   0.01   0.00
                     19                     20                     21
                      A                      A                      A
 Frequencies --    815.7429               846.3381               866.0653
 Red. masses --      5.1753                 1.5512                 1.3613
 Frc consts  --      2.0290                 0.6546                 0.6016
 IR Inten    --     20.4723                26.6908                 8.7195
  Atom  AN      X      Y      Z        X      Y      Z        X      Y      Z
     1   6     0.00  -0.02   0.00     0.00   0.00   0.10     0.00   0.00   0.03
     2   6     0.33   0.18   0.00     0.00   0.00  -0.17     0.00   0.00  -0.06
     3   6     0.06  -0.09   0.00     0.00   0.00   0.01     0.00   0.00  -0.01
     4   1     0.18  -0.06   0.00     0.00   0.00   0.01     0.00   0.00   0.06
     5   6    -0.22   0.05   0.00     0.00   0.00  -0.05     0.00   0.00   0.11
     6   6    -0.01   0.01   0.00     0.00   0.00  -0.02     0.00   0.00   0.00
     7   1    -0.17   0.03   0.00     0.00   0.00  -0.02     0.00   0.00   0.07
     8   1     0.59   0.07   0.00     0.00   0.00   0.88     0.00   0.00   0.30
     9   6     0.20   0.03   0.00     0.00   0.00   0.08     0.00   0.00   0.04
    10   6    -0.04  -0.18   0.00     0.00   0.00   0.01     0.00   0.00  -0.12
    11   1     0.08  -0.11   0.00     0.00   0.00   0.00     0.00   0.00   0.04
    12   6     0.09  -0.13   0.00     0.00   0.00  -0.02     0.00   0.00  -0.01
    13   7    -0.20   0.06   0.00     0.00   0.00   0.01     0.00   0.00  -0.01
    14   8    -0.12   0.07   0.00     0.00   0.00  -0.02     0.00   0.00  -0.01
    15   1    -0.11  -0.17   0.00     0.00   0.00  -0.19     0.00   0.00   0.65
    16   1    -0.16   0.27   0.00     0.00   0.00   0.38     0.00   0.00  -0.67
    17   6    -0.05  -0.02   0.00     0.00   0.00   0.00     0.00   0.00   0.00
    18   1    -0.08  -0.21   0.00     0.00   0.00   0.04     0.00   0.00   0.01
    19   1     0.06   0.02   0.01    -0.01   0.01  -0.01     0.00   0.00   0.00
    20   1     0.06   0.02  -0.01     0.01  -0.01  -0.01     0.00   0.00   0.00
                     22                     23                     24
                      A                      A                      A
 Frequencies --    916.5104               935.7927               965.3867
 Red. masses --      4.1504                 1.2770                 2.9695
 Frc consts  --      2.0541                 0.6589                 1.6305
 IR Inten    --     11.2237                 0.0228                10.0642
  Atom  AN      X      Y      Z        X      Y      Z        X      Y      Z
     1   6    -0.02  -0.02   0.00     0.00   0.00   0.01    -0.09   0.03   0.00
     2   6     0.05   0.10   0.00     0.00   0.00   0.01    -0.11   0.21   0.00
     3   6     0.00  -0.05   0.00     0.00   0.00   0.11     0.00   0.07   0.00
     4   1     0.10  -0.03   0.00     0.00   0.00   0.69     0.06  -0.27   0.00
     5   6     0.25  -0.09   0.00     0.00   0.00   0.00     0.00   0.01   0.00
     6   6    -0.09  -0.07   0.00     0.00   0.00  -0.01     0.02   0.06   0.00
     7   1    -0.48   0.02   0.00     0.00   0.00   0.00     0.01  -0.06   0.00
     8   1     0.18   0.05   0.00     0.00   0.00  -0.03    -0.36   0.32   0.00
     9   6    -0.01   0.15   0.00     0.00   0.00  -0.01    -0.05  -0.01   0.00
    10   6     0.03   0.23   0.00     0.00   0.00   0.00     0.06  -0.10   0.00
    11   1     0.02  -0.06   0.00     0.00   0.00  -0.71    -0.45   0.26   0.00
    12   6     0.05  -0.06   0.00     0.00   0.00  -0.11     0.09  -0.24   0.00
    13   7    -0.21  -0.20   0.00     0.00   0.00   0.01    -0.03  -0.02   0.00
    14   8     0.01  -0.01   0.00     0.00   0.00  -0.01     0.06  -0.07   0.00
    15   1    -0.51   0.26   0.00     0.00   0.00   0.00     0.34  -0.12   0.00
    16   1     0.32   0.13   0.00     0.00   0.00  -0.02     0.05   0.17   0.00
    17   6     0.00   0.01   0.00     0.00   0.00   0.00     0.06   0.04   0.00
    18   1     0.01   0.03   0.00     0.00   0.00   0.00     0.10   0.25   0.00
    19   1     0.00   0.01   0.00     0.00   0.00   0.00    -0.07   0.00  -0.01
    20   1     0.00   0.01   0.00     0.00   0.00   0.00    -0.07   0.00   0.01
                     25                     26                     27
                      A                      A                      A
 Frequencies --   1087.6740              1093.9271              1120.5543
 Red. masses --      2.6710                 1.4005                 1.7282
 Frc consts  --      1.8618                 0.9874                 1.2785
 IR Inten    --     31.8149                 8.6690                 2.8935
  Atom  AN      X      Y      Z        X      Y      Z        X      Y      Z
     1   6     0.16   0.05   0.00    -0.04  -0.02   0.00    -0.04  -0.02   0.00
     2   6     0.04   0.07   0.00     0.04   0.02   0.00     0.03   0.05   0.00
     3   6    -0.04   0.00   0.00     0.02   0.01   0.00     0.04   0.07   0.00
     4   1    -0.34  -0.37   0.00    -0.01   0.02   0.00    -0.25  -0.21   0.00
     5   6     0.00  -0.02   0.00    -0.07   0.01   0.00     0.06  -0.08   0.00
     6   6    -0.04  -0.03   0.00    -0.03  -0.01   0.00    -0.04  -0.05   0.00
     7   1    -0.06   0.07   0.00     0.05  -0.15   0.00    -0.33   0.44   0.00
     8   1    -0.30   0.22   0.00     0.28  -0.08   0.00     0.02   0.06   0.00
     9   6    -0.02  -0.05   0.00    -0.03   0.03   0.00     0.01  -0.05   0.00
    10   6    -0.01   0.09   0.00     0.04   0.09   0.00    -0.01  -0.02   0.00
    11   1    -0.16   0.05   0.00     0.15  -0.04   0.00     0.27  -0.01   0.00
    12   6     0.02  -0.08   0.00    -0.01   0.01   0.00    -0.01  -0.02   0.00
    13   7     0.02   0.00   0.00    -0.02  -0.08   0.00     0.02   0.13   0.00
    14   8     0.04   0.18   0.00    -0.01  -0.04   0.00    -0.04  -0.07   0.00
    15   1     0.24   0.09   0.00     0.81   0.07   0.00    -0.20  -0.02   0.00
    16   1    -0.15  -0.49   0.00    -0.19  -0.36   0.00    -0.10  -0.62   0.00
    17   6    -0.10  -0.19   0.00     0.02   0.05   0.00     0.04   0.08   0.00
    18   1    -0.10  -0.22   0.00     0.02   0.04   0.00     0.02   0.03   0.00
    19   1    -0.06  -0.14  -0.01     0.03   0.04   0.00     0.04   0.06   0.01
    20   1    -0.06  -0.14   0.01     0.03   0.04   0.00     0.04   0.06  -0.01
                     28                     29                     30
                      A                      A                      A
 Frequencies --   1147.6520              1173.0595              1190.4655
 Red. masses --      1.2006                 1.2857                 1.7785
 Frc consts  --      0.9317                 1.0424                 1.4850
 IR Inten    --     13.6705                 0.5198                69.0715
  Atom  AN      X      Y      Z        X      Y      Z        X      Y      Z
     1   6    -0.01   0.01   0.00     0.00   0.00   0.00    -0.07   0.01   0.00
     2   6     0.00  -0.05   0.00     0.00   0.00   0.00    -0.05  -0.01   0.00
     3   6    -0.05  -0.02   0.00     0.00   0.00   0.00     0.02  -0.02   0.00
     4   1     0.53   0.40   0.00     0.00   0.00   0.01    -0.16  -0.10   0.00
     5   6     0.01  -0.06   0.00     0.00   0.00   0.00     0.03  -0.06   0.00
     6   6     0.00   0.02   0.00     0.00   0.00   0.00     0.01   0.02   0.00
     7   1    -0.23   0.22   0.00     0.00   0.00   0.00    -0.15   0.17   0.00
     8   1     0.09  -0.09   0.00     0.00   0.00   0.02     0.44  -0.23   0.00
     9   6     0.01   0.01   0.00     0.00   0.00   0.00    -0.05   0.10   0.00
    10   6     0.01  -0.02   0.00     0.00   0.00   0.00     0.02  -0.09   0.00
    11   1    -0.51   0.17   0.00     0.00   0.00   0.00     0.30  -0.14   0.00
    12   6     0.05   0.02   0.00     0.00   0.00   0.00    -0.03   0.00   0.00
    13   7    -0.03   0.04   0.00     0.00   0.00   0.00    -0.01   0.04   0.00
    14   8     0.01   0.01   0.00     0.00   0.00   0.06     0.04   0.10   0.00
    15   1     0.11  -0.02   0.00     0.00   0.00   0.00     0.18  -0.11   0.00
    16   1    -0.07  -0.35   0.00     0.00   0.00   0.00     0.08   0.07   0.00
    17   6    -0.01  -0.02   0.00     0.00   0.00  -0.14     0.05  -0.12   0.00
    18   1     0.00   0.02   0.00     0.00   0.00   0.29     0.16   0.46   0.00
    19   1    -0.02  -0.02   0.00    -0.23  -0.60   0.18    -0.27  -0.14  -0.07
    20   1    -0.02  -0.02   0.00     0.23   0.60   0.18    -0.27  -0.14   0.07
                     31                     32                     33
                      A                      A                      A
 Frequencies --   1219.5978              1259.2362              1268.9616
 Red. masses --      1.7365                 2.1532                 1.5951
 Frc consts  --      1.5218                 2.0116                 1.5134
 IR Inten    --     28.6178                80.2847                48.3734
  Atom  AN      X      Y      Z        X      Y      Z        X      Y      Z
     1   6    -0.02   0.01   0.00    -0.11   0.00   0.00    -0.04  -0.05   0.00
     2   6     0.06  -0.02   0.00     0.00   0.08   0.00    -0.03   0.00   0.00
     3   6     0.00   0.03   0.00    -0.01   0.08   0.00    -0.05  -0.01   0.00
     4   1     0.12   0.07   0.00     0.09   0.04   0.00     0.35   0.20   0.00
     5   6    -0.03   0.05   0.00     0.02   0.07   0.00     0.00  -0.02   0.00
     6   6    -0.05  -0.02   0.00    -0.11  -0.11   0.00    -0.12   0.07   0.00
     7   1     0.23  -0.21   0.00     0.26  -0.14   0.00     0.35  -0.27   0.00
     8   1    -0.09   0.04   0.00     0.74  -0.23   0.00    -0.28   0.11   0.00
     9   6     0.06  -0.11   0.00    -0.05  -0.11   0.00     0.04   0.06   0.00
    10   6     0.01   0.08   0.00    -0.01   0.01   0.00     0.09  -0.03   0.00
    11   1    -0.09   0.07   0.00    -0.17   0.15   0.00     0.54  -0.26   0.00
    12   6     0.01  -0.02   0.00     0.03  -0.01   0.00     0.01  -0.05   0.00
    13   7     0.02  -0.02   0.00     0.09   0.01   0.00    -0.01   0.04   0.00
    14   8    -0.10   0.02   0.00     0.11   0.02   0.00     0.05   0.02   0.00
    15   1    -0.29   0.10   0.00    -0.27   0.02   0.00    -0.17  -0.02   0.00
    16   1    -0.10  -0.17   0.00     0.00  -0.01   0.00    -0.08  -0.29   0.00
    17   6     0.13  -0.03   0.00    -0.07  -0.04   0.00    -0.03  -0.02   0.00
    18   1     0.24   0.56   0.00    -0.07  -0.07   0.00    -0.03  -0.07   0.00
    19   1    -0.36  -0.11  -0.09     0.16   0.04   0.03     0.06   0.01   0.01
    20   1    -0.36  -0.11   0.09     0.16   0.04  -0.03     0.06   0.01  -0.01
                     34                     35                     36
                      A                      A                      A
 Frequencies --   1333.8837              1361.6671              1406.0703
 Red. masses --      3.5870                 2.2798                 7.7800
 Frc consts  --      3.7603                 2.4906                 9.0624
 IR Inten    --     82.8408                14.3727                20.1013
  Atom  AN      X      Y      Z        X      Y      Z        X      Y      Z
     1   6     0.20   0.21   0.00    -0.08   0.08   0.00    -0.10   0.30   0.00
     2   6    -0.01  -0.04   0.00    -0.09  -0.05   0.00     0.18  -0.10   0.00
     3   6    -0.03  -0.11   0.00     0.08  -0.07   0.00     0.16  -0.04   0.00
     4   1    -0.17  -0.28   0.00    -0.39  -0.25   0.00     0.26   0.19   0.00
     5   6     0.05  -0.07   0.00    -0.07   0.07   0.00     0.10  -0.14   0.00
     6   6    -0.16   0.05   0.00     0.11   0.03   0.00     0.11   0.34   0.00
     7   1     0.45  -0.28   0.00     0.03  -0.17   0.00     0.07  -0.11   0.00
     8   1     0.45  -0.23   0.00     0.08  -0.14   0.00     0.12  -0.09   0.00
     9   6    -0.15   0.08   0.00     0.08   0.02   0.00    -0.13  -0.35   0.00
    10   6     0.09  -0.05   0.00     0.17   0.00   0.00    -0.09   0.12   0.00
    11   1    -0.24  -0.05   0.00    -0.27   0.08   0.00     0.32  -0.10   0.00
    12   6     0.10  -0.04   0.00    -0.01   0.04   0.00    -0.23  -0.20   0.00
    13   7     0.01   0.08   0.00    -0.11  -0.03   0.00    -0.12   0.05   0.00
    14   8    -0.12  -0.09   0.00     0.05  -0.01   0.00     0.08   0.00   0.00
    15   1    -0.09  -0.06   0.00    -0.46   0.03   0.00     0.08   0.13   0.00
    16   1     0.07  -0.04   0.00    -0.26  -0.49   0.00     0.19   0.11   0.00
    17   6     0.03   0.09   0.00    -0.03  -0.02   0.00    -0.06  -0.02   0.00
    18   1    -0.03  -0.15   0.00    -0.02   0.03   0.00    -0.05   0.00   0.00
    19   1    -0.09  -0.05   0.04     0.10   0.03   0.01     0.17   0.03   0.04
    20   1    -0.09  -0.05  -0.04     0.10   0.03  -0.01     0.17   0.03  -0.04
                     37                     38                     39
                      A                      A                      A
 Frequencies --   1463.1909              1478.8359              1485.9771
 Red. masses --      1.5688                 2.0630                 1.0426
 Frc consts  --      1.9788                 2.6583                 1.3564
 IR Inten    --      8.8678                13.2555                 9.8287
  Atom  AN      X      Y      Z        X      Y      Z        X      Y      Z
     1   6     0.02   0.02   0.00    -0.03  -0.08   0.00     0.00   0.00   0.00
     2   6     0.01   0.01   0.00    -0.08   0.05   0.00     0.00   0.00   0.00
     3   6     0.02   0.03   0.00    -0.03   0.00   0.00     0.00   0.00   0.00
     4   1     0.17   0.14   0.00    -0.11  -0.06   0.00     0.00   0.00   0.00
     5   6    -0.02   0.10   0.00     0.05  -0.09   0.00     0.00   0.00   0.00
     6   6     0.01   0.02   0.00     0.08  -0.01   0.00     0.00   0.00   0.00
     7   1    -0.25   0.17   0.00     0.36  -0.30   0.00     0.00   0.00   0.00
     8   1     0.08  -0.02   0.00     0.16  -0.05   0.00     0.00   0.00  -0.03
     9   6    -0.06   0.01   0.00     0.08  -0.08   0.00     0.00   0.00   0.00
    10   6     0.05  -0.04   0.00    -0.06   0.05   0.00     0.00   0.00   0.00
    11   1     0.11   0.00   0.00    -0.02   0.00   0.00     0.00   0.00   0.00
    12   6    -0.08  -0.06   0.00     0.05   0.06   0.00     0.00   0.00   0.00
    13   7     0.05  -0.08   0.00    -0.11   0.10   0.00     0.00   0.00   0.00
    14   8     0.02   0.02   0.00     0.03   0.02   0.00     0.00   0.00  -0.01
    15   1    -0.19  -0.04   0.00     0.15   0.05   0.00     0.00   0.00   0.00
    16   1    -0.10  -0.11   0.00     0.08   0.00   0.00     0.00   0.00   0.00
    17   6     0.05   0.07   0.00     0.05   0.07   0.00     0.00   0.00  -0.05
    18   1    -0.08  -0.56   0.00    -0.06  -0.47   0.00     0.00   0.00   0.71
    19   1    -0.34  -0.28   0.10    -0.31  -0.29   0.12     0.48   0.08   0.07
    20   1    -0.34  -0.28  -0.10    -0.31  -0.29  -0.12    -0.48  -0.08   0.07
                     40                     41                     42
                      A                      A                      A
 Frequencies --   1498.8471              1510.0382              1533.8139
 Red. masses --      1.3665                 1.9615                 3.7438
 Frc consts  --      1.8088                 2.6353                 5.1893
 IR Inten    --     77.8671                24.8806                94.1711
  Atom  AN      X      Y      Z        X      Y      Z        X      Y      Z
     1   6     0.04   0.04   0.00    -0.07  -0.05   0.00    -0.17   0.20   0.00
     2   6    -0.06   0.00   0.00     0.11  -0.03   0.00     0.00  -0.12   0.00
     3   6    -0.09   0.01   0.00     0.15  -0.02   0.00    -0.05   0.00   0.00
     4   1     0.05  -0.03   0.00    -0.07   0.05   0.00    -0.14  -0.23   0.00
     5   6     0.00   0.03   0.00    -0.03  -0.08   0.00    -0.15  -0.15   0.00
     6   6     0.03   0.03   0.00    -0.07  -0.08   0.00    -0.14  -0.02   0.00
     7   1    -0.13   0.08   0.00     0.16  -0.07   0.00    -0.28   0.34   0.00
     8   1     0.12  -0.08   0.00    -0.29   0.14   0.00    -0.14  -0.09   0.00
     9   6     0.06  -0.04   0.00    -0.07   0.08   0.00     0.21   0.01   0.00
    10   6    -0.03   0.00   0.00     0.06   0.01   0.00     0.04   0.11   0.00
    11   1     0.19  -0.11   0.00    -0.31   0.18   0.00     0.01  -0.04   0.00
    12   6     0.05  -0.02   0.00    -0.08   0.03   0.00     0.11  -0.03   0.00
    13   7     0.01  -0.04   0.00     0.01   0.06   0.00     0.12  -0.01   0.00
    14   8    -0.03   0.00   0.00     0.01   0.03   0.00     0.07  -0.02   0.00
    15   1     0.01   0.00   0.00     0.00   0.01   0.00     0.08   0.14   0.00
    16   1    -0.02  -0.03   0.00     0.03   0.14   0.00     0.02   0.49   0.00
    17   6    -0.03   0.04   0.00    -0.02   0.03   0.00     0.01   0.03   0.00
    18   1     0.04   0.34   0.00     0.02   0.17   0.00    -0.06  -0.35   0.00
    19   1     0.28  -0.41   0.36     0.15  -0.41   0.32    -0.18  -0.03  -0.02
    20   1     0.28  -0.41  -0.36     0.15  -0.41  -0.32    -0.18  -0.03   0.02
                     43                     44                     45
                      A                      A                      A
 Frequencies --   1568.4246              1650.6652              1695.4401
 Red. masses --      4.5699                 6.3570                 7.1437
 Frc consts  --      6.6235                10.2052                12.0986
 IR Inten    --     24.1418                28.5615                49.0189
  Atom  AN      X      Y      Z        X      Y      Z        X      Y      Z
     1   6    -0.16   0.04   0.00    -0.10  -0.25   0.00     0.19  -0.16   0.00
     2   6     0.09  -0.09   0.00     0.11   0.10   0.00    -0.30   0.15   0.00
     3   6     0.07  -0.11   0.00    -0.08  -0.16   0.00     0.32  -0.15   0.00
     4   1    -0.29  -0.23   0.00    -0.33  -0.23   0.00     0.05   0.21   0.00
     5   6     0.23   0.22   0.00    -0.08  -0.05   0.00    -0.03  -0.06   0.00
     6   6    -0.16   0.12   0.00    -0.04   0.33   0.00    -0.27   0.22   0.00
     7   1     0.04  -0.09   0.00    -0.33   0.29   0.00    -0.16   0.20   0.00
     8   1    -0.30   0.06   0.00     0.00   0.16   0.00     0.38  -0.13   0.00
     9   6     0.09   0.05   0.00    -0.23  -0.19   0.00     0.27  -0.07   0.00
    10   6    -0.27  -0.14   0.00     0.15   0.04   0.00    -0.03   0.04   0.00
    11   1    -0.24  -0.01   0.00    -0.08  -0.19   0.00    -0.34   0.12   0.00
    12   6     0.09   0.07   0.00     0.24   0.22   0.00    -0.20  -0.01   0.00
    13   7     0.01  -0.07   0.00     0.09  -0.07   0.00     0.08  -0.03   0.00
    14   8     0.04   0.00   0.00     0.00   0.02   0.00    -0.03   0.01   0.00
    15   1     0.30  -0.20   0.00    -0.24   0.07   0.00     0.09   0.06   0.00
    16   1     0.07  -0.44   0.00    -0.05   0.15   0.00     0.03   0.13   0.00
    17   6     0.01   0.02   0.00     0.02   0.01   0.00     0.00  -0.01   0.00
    18   1    -0.02  -0.13   0.00     0.02   0.01   0.00     0.01   0.07   0.00
    19   1    -0.07  -0.09   0.05    -0.03  -0.05   0.03     0.03   0.04  -0.02
    20   1    -0.07  -0.09  -0.05    -0.03  -0.05  -0.03     0.03   0.04   0.02
                     46                     47                     48
                      A                      A                      A
 Frequencies --   3014.7139              3077.0382              3155.5108
 Red. masses --      1.0352                 1.1054                 1.0989
 Frc consts  --      5.5433                 6.1663                 6.4470
 IR Inten    --     54.3718                39.6986                24.0413
  Atom  AN      X      Y      Z        X      Y      Z        X      Y      Z
     1   6     0.00   0.00   0.00     0.00   0.00   0.00     0.00   0.00   0.00
     2   6     0.00   0.00   0.00     0.00   0.00   0.00     0.00   0.00   0.00
     3   6     0.00   0.00   0.00     0.00   0.00   0.00     0.00   0.00   0.00
     4   1     0.00   0.00   0.00     0.00   0.00   0.00     0.00   0.00   0.00
     5   6     0.00   0.00   0.00     0.00   0.00   0.00     0.00   0.00   0.00
     6   6     0.00   0.00   0.00     0.00   0.00   0.00     0.00   0.00   0.00
     7   1     0.00   0.00   0.00     0.00   0.00   0.00     0.00   0.00   0.00
     8   1    -0.01  -0.02   0.00     0.00   0.00   0.00    -0.01  -0.02   0.00
     9   6     0.00   0.00   0.00     0.00   0.00   0.00     0.00   0.00   0.00
    10   6     0.00   0.00   0.00     0.00   0.00   0.00     0.00   0.00   0.00
    11   1     0.00   0.00   0.00     0.00   0.00   0.00     0.00   0.00   0.00
    12   6     0.00   0.00   0.00     0.00   0.00   0.00     0.00   0.00   0.00
    13   7     0.00   0.00   0.00     0.00   0.00   0.00     0.00   0.00   0.00
    14   8     0.00   0.00   0.00     0.00   0.00   0.00     0.00   0.00   0.00
    15   1     0.00   0.00   0.00     0.00   0.00   0.00     0.00   0.00   0.00
    16   1     0.00   0.00   0.00     0.00   0.00   0.00     0.00   0.00   0.00
    17   6     0.00  -0.05   0.00     0.00   0.00   0.09     0.09  -0.03   0.00
    18   1     0.29  -0.06   0.00     0.00   0.00   0.02    -0.94   0.18   0.00
    19   1    -0.16   0.34   0.56     0.18  -0.37  -0.57    -0.04   0.09   0.17
    20   1    -0.16   0.34  -0.56    -0.18   0.37  -0.57    -0.04   0.09  -0.17
                     49                     50                     51
                      A                      A                      A
 Frequencies --   3195.4452              3220.9154              3224.1644
 Red. masses --      1.0893                 1.0945                 1.0905
 Frc consts  --      6.5530                 6.6897                 6.6787
 IR Inten    --      8.1606                 3.7203                 6.2091
  Atom  AN      X      Y      Z        X      Y      Z        X      Y      Z
     1   6     0.00   0.00   0.00     0.00   0.00   0.00     0.00   0.00   0.00
     2   6     0.00   0.00   0.00     0.00   0.00   0.00    -0.03  -0.08   0.00
     3   6    -0.03  -0.08   0.00    -0.02  -0.03   0.00     0.00   0.00   0.00
     4   1     0.21  -0.27   0.00    -0.58   0.74   0.00    -0.03   0.03   0.00
     5   6     0.00   0.00   0.00     0.00   0.00   0.00     0.00   0.00   0.00
     6   6     0.00   0.00   0.00     0.00   0.00   0.00     0.00   0.00   0.00
     7   1     0.00   0.00   0.00     0.00   0.00   0.00     0.00   0.00   0.00
     8   1     0.01   0.03   0.00    -0.01  -0.03   0.00     0.39   0.91   0.00
     9   6     0.00   0.00   0.00     0.00   0.00   0.00     0.00   0.00   0.00
    10   6     0.00   0.00   0.00     0.00   0.00   0.00     0.00   0.00   0.00
    11   1     0.36   0.87   0.00     0.13   0.31   0.00    -0.01  -0.01   0.00
    12   6    -0.01   0.02   0.00     0.05  -0.06   0.00     0.00   0.00   0.00
    13   7     0.00   0.00   0.00     0.00   0.00   0.00     0.00   0.00   0.00
    14   8     0.00   0.00   0.00     0.00   0.00   0.00     0.00   0.00   0.00
    15   1     0.00   0.00   0.00     0.00   0.00   0.00     0.00  -0.01   0.00
    16   1     0.00   0.00   0.00     0.00   0.00   0.00     0.00   0.00   0.00
    17   6     0.00   0.00   0.00     0.00   0.00   0.00     0.00   0.00   0.00
    18   1     0.00   0.00   0.00     0.00   0.00   0.00    -0.02   0.01   0.00
    19   1     0.00   0.00   0.00     0.00   0.00   0.00    -0.01   0.01   0.01
    20   1     0.00   0.00   0.00     0.00   0.00   0.00    -0.01   0.01  -0.01
                     52                     53                     54
                      A                      A                      A
 Frequencies --   3258.4621              3278.1209              3718.6267
 Red. masses --      1.0900                 1.1051                 1.0807
 Frc consts  --      6.8189                 6.9966                 8.8049
 IR Inten    --      1.2556                 1.5834                85.9572
  Atom  AN      X      Y      Z        X      Y      Z        X      Y      Z
     1   6     0.00   0.00   0.00     0.00   0.00   0.00     0.00   0.00   0.00
     2   6     0.00   0.00   0.00     0.00   0.00   0.00     0.00   0.00   0.00
     3   6     0.00   0.00   0.00     0.00   0.00   0.00     0.00   0.00   0.00
     4   1     0.00   0.00   0.00     0.00   0.00   0.00     0.00   0.00   0.00
     5   6    -0.05   0.02   0.00    -0.07   0.02   0.00     0.00   0.00   0.00
     6   6     0.00   0.00   0.00     0.00   0.00   0.00     0.00   0.00   0.00
     7   1    -0.01   0.00   0.00    -0.01  -0.01   0.00     0.65   0.75   0.00
     8   1     0.00   0.01   0.00     0.00   0.00   0.00     0.00   0.00   0.00
     9   6     0.00   0.00   0.00     0.00   0.00   0.00     0.00   0.00   0.00
    10   6     0.00  -0.07   0.00     0.01   0.06   0.00     0.00   0.00   0.00
    11   1     0.00   0.00   0.00     0.00   0.00   0.00     0.00   0.00   0.00
    12   6     0.00   0.00   0.00     0.00   0.00   0.00     0.00   0.00   0.00
    13   7     0.00   0.00   0.00     0.00   0.00   0.00    -0.05  -0.06   0.00
    14   8     0.00   0.00   0.00     0.00   0.00   0.00     0.00   0.00   0.00
    15   1     0.03   0.76   0.00    -0.03  -0.65   0.00     0.00   0.00   0.00
    16   1     0.62  -0.19   0.00     0.72  -0.21   0.00     0.01   0.00   0.00
    17   6     0.00   0.00   0.00     0.00   0.00   0.00     0.00   0.00   0.00
    18   1     0.00   0.00   0.00     0.00   0.00   0.00     0.00   0.00   0.00
    19   1     0.00   0.00   0.00     0.00   0.00   0.00     0.00   0.00   0.00
    20   1     0.00   0.00   0.00     0.00   0.00   0.00     0.00   0.00   0.00

 -------------------
 - Thermochemistry -
 -------------------
 Temperature   298.150 Kelvin.  Pressure   1.00000 Atm.
 Atom     1 has atomic number  6 and mass  12.00000
 Atom     2 has atomic number  6 and mass  12.00000
 Atom     3 has atomic number  6 and mass  12.00000
 Atom     4 has atomic number  1 and mass   1.00783
 Atom     5 has atomic number  6 and mass  12.00000
 Atom     6 has atomic number  6 and mass  12.00000
 Atom     7 has atomic number  1 and mass   1.00783
 Atom     8 has atomic number  1 and mass   1.00783
 Atom     9 has atomic number  6 and mass  12.00000
 Atom    10 has atomic number  6 and mass  12.00000
 Atom    11 has atomic number  1 and mass   1.00783
 Atom    12 has atomic number  6 and mass  12.00000
 Atom    13 has atomic number  7 and mass  14.00307
 Atom    14 has atomic number  8 and mass  15.99491
 Atom    15 has atomic number  1 and mass   1.00783
 Atom    16 has atomic number  1 and mass   1.00783
 Atom    17 has atomic number  6 and mass  12.00000
 Atom    18 has atomic number  1 and mass   1.00783
 Atom    19 has atomic number  1 and mass   1.00783
 Atom    20 has atomic number  1 and mass   1.00783
 Molecular mass:   147.06841 amu.
 Principal axes and moments of inertia in atomic units:
                           1         2         3
     Eigenvalues --   628.405172368.495082985.40029
           X            0.99983   0.01839   0.00000
           Y           -0.01839   0.99983   0.00000
           Z            0.00000   0.00000   1.00000
 This molecule is an asymmetric top.
 Rotational symmetry number  1.
 Warning -- assumption of classical behavior for rotation
           may cause significant error
 Rotational temperatures (Kelvin)      0.13783     0.03657     0.02901
 Rotational constants (GHZ):           2.87194     0.76198     0.60452
 Zero-point vibrational energy     427222.4 (Joules/Mol)
                                  102.10861 (Kcal/Mol)
 Warning -- explicit consideration of  13 degrees of freedom as
           vibrations may cause significant error
 Vibrational temperatures:    121.75   218.58   309.76   323.06   358.30
          (Kelvin)            534.15   534.16   544.21   623.71   665.59
                              760.87   875.17   883.07   912.68  1045.39
                             1095.31  1099.73  1164.67  1173.67  1217.69
                             1246.07  1318.65  1346.40  1388.97  1564.92
                             1573.92  1612.23  1651.21  1687.77  1712.81
                             1754.73  1811.76  1825.75  1919.16  1959.13
                             2023.02  2105.20  2127.71  2137.99  2156.50
                             2172.61  2206.81  2256.61  2374.94  2439.36
                             4337.50  4427.17  4540.07  4597.53  4634.17
                             4638.85  4688.19  4716.48  5350.27
 
 Zero-point correction=                           0.162720 (Hartree/Particle)
 Thermal correction to Energy=                    0.171635
 Thermal correction to Enthalpy=                  0.172579
 Thermal correction to Gibbs Free Energy=         0.128913
 Sum of electronic and zero-point Energies=           -477.745491
 Sum of electronic and thermal Energies=              -477.736576
 Sum of electronic and thermal Enthalpies=            -477.735632
 Sum of electronic and thermal Free Energies=         -477.779298
 
                     E (Thermal)             CV                S
                      KCal/Mol        Cal/Mol-Kelvin    Cal/Mol-Kelvin
 Total                  107.703             35.617             91.903
 Electronic               0.000              0.000              0.000
 Translational            0.889              2.981             40.868
 Rotational               0.889              2.981             29.875
 Vibrational            105.925             29.655             21.160
 Vibration     1          0.601              1.960              3.781
 Vibration     2          0.619              1.901              2.648
 Vibration     3          0.645              1.818              1.998
 Vibration     4          0.649              1.804              1.922
 Vibration     5          0.662              1.764              1.737
 Vibration     6          0.743              1.531              1.075
 Vibration     7          0.743              1.531              1.075
 Vibration     8          0.749              1.517              1.046
 Vibration     9          0.794              1.397              0.847
 Vibration    10          0.820              1.333              0.759
 Vibration    11          0.884              1.186              0.590
 Vibration    12          0.967              1.014              0.436
 Vibration    13          0.973              1.003              0.427
                       Q            Log10(Q)             Ln(Q)
 Total Bot       0.506122D-59        -59.295745       -136.533498
 Total V=0       0.355056D+16         15.550297         35.805881
 Vib (Bot)       0.956791D-73        -73.019183       -168.132882
 Vib (Bot)    1  0.243202D+01          0.385966          0.888720
 Vib (Bot)    2  0.133393D+01          0.125134          0.288132
 Vib (Bot)    3  0.920541D+00         -0.035957         -0.082794
 Vib (Bot)    4  0.879237D+00         -0.055894         -0.128701
 Vib (Bot)    5  0.784077D+00         -0.105641         -0.243248
 Vib (Bot)    6  0.489971D+00         -0.309830         -0.713410
 Vib (Bot)    7  0.489959D+00         -0.309841         -0.713434
 Vib (Bot)    8  0.478593D+00         -0.320034         -0.736905
 Vib (Bot)    9  0.400834D+00         -0.397036         -0.914208
 Vib (Bot)   10  0.366881D+00         -0.435475         -1.002718
 Vib (Bot)   11  0.302747D+00         -0.518920         -1.194858
 Vib (Bot)   12  0.243389D+00         -0.613699         -1.413094
 Vib (Bot)   13  0.239837D+00         -0.620084         -1.427797
 Vib (V=0)       0.671210D+02          1.826859          4.206497
 Vib (V=0)    1  0.298288D+01          0.474636          1.092890
 Vib (V=0)    2  0.192456D+01          0.284332          0.654699
 Vib (V=0)    3  0.154757D+01          0.189649          0.436684
 Vib (V=0)    4  0.151146D+01          0.179398          0.413078
 Vib (V=0)    5  0.142993D+01          0.155316          0.357628
 Vib (V=0)    6  0.120005D+01          0.079200          0.182364
 Vib (V=0)    7  0.120004D+01          0.079197          0.182357
 Vib (V=0)    8  0.119214D+01          0.076326          0.175746
 Vib (V=0)    9  0.114083D+01          0.057222          0.131759
 Vib (V=0)   10  0.112016D+01          0.049281          0.113474
 Vib (V=0)   11  0.108451D+01          0.035235          0.081131
 Vib (V=0)   12  0.105609D+01          0.023702          0.054575
 Vib (V=0)   13  0.105455D+01          0.023066          0.053111
 Electronic      0.100000D+01          0.000000          0.000000
 Translational   0.701026D+08          7.845734         18.065471
 Rotational      0.754577D+06          5.877704         13.533913
 ***** Axes restored to original set *****
 -------------------------------------------------------------------
 Center     Atomic                   Forces (Hartrees/Bohr)
 Number     Number              X              Y              Z
 -------------------------------------------------------------------
      1        6          -0.000084798    0.000049530   -0.000004576
      2        6          -0.000049126    0.000046808   -0.000003999
      3        6          -0.000064727   -0.000026630    0.000001164
      4        1           0.000005094   -0.000015128    0.000001157
      5        6           0.000030890    0.000005990   -0.000000012
      6        6           0.000042115    0.000051184   -0.000003142
      7        1           0.000015879   -0.000001723    0.000000344
      8        1          -0.000002302   -0.000015361    0.000001091
      9        6           0.000063961   -0.000081757    0.000006755
     10        6           0.000010771   -0.000016096    0.000001185
     11        1           0.000005768    0.000001240   -0.000000022
     12        6           0.000031345    0.000005444   -0.000000039
     13        7          -0.000054755    0.000019844   -0.000002185
     14        8           0.000070326   -0.000035086    0.000003353
     15        1          -0.000001728   -0.000005405    0.000000417
     16        1          -0.000006677    0.000026510   -0.000002034
     17        6          -0.000009243    0.000013332   -0.000001080
     18        1           0.000004116   -0.000003322    0.000000286
     19        1          -0.000003357   -0.000010246   -0.000006934
     20        1          -0.000003553   -0.000009130    0.000008270
 -------------------------------------------------------------------
 Cartesian Forces:  Max     0.000084798 RMS     0.000028451
 FormGI is forming the generalized inverse of G from B-inverse, IUseBI=4.

 GradGradGradGradGradGradGradGradGradGradGradGradGradGradGradGradGradGrad
 Berny optimization.
 Internal  Forces:  Max     0.000071983 RMS     0.000014382
 Search for a local minimum.
 Step number   1 out of a maximum of    2
 All quantities printed in internal units (Hartrees-Bohrs-Radians)
 Second derivative matrix not updated -- analytic derivatives used.
 ITU=  0
     Eigenvalues ---    0.00262   0.00412   0.01011   0.01213   0.01328
     Eigenvalues ---    0.01603   0.01704   0.01740   0.01841   0.02002
     Eigenvalues ---    0.02399   0.02820   0.03008   0.03512   0.04749
     Eigenvalues ---    0.08566   0.08640   0.09522   0.10557   0.10573
     Eigenvalues ---    0.10878   0.11000   0.11721   0.13160   0.16138
     Eigenvalues ---    0.18196   0.18382   0.18691   0.19062   0.22225
     Eigenvalues ---    0.22280   0.23487   0.27565   0.31943   0.32840
     Eigenvalues ---    0.33137   0.33618   0.34878   0.35286   0.35899
     Eigenvalues ---    0.36416   0.36789   0.37562   0.37712   0.38898
     Eigenvalues ---    0.40668   0.41080   0.42280   0.44532   0.47573
     Eigenvalues ---    0.49244   0.50104   0.52597   0.54830
 Angle between quadratic step and forces=  26.40 degrees.
 Linear search not attempted -- first point.
 Iteration  1 RMS(Cart)=  0.00007263 RMS(Int)=  0.00000001
 Iteration  2 RMS(Cart)=  0.00000001 RMS(Int)=  0.00000000
 Variable       Old X    -DE/DX   Delta X   Delta X   Delta X     New X
                                 (Linear)    (Quad)   (Total)
    R1        2.61522   0.00000   0.00000  -0.00001  -0.00001   2.61521
    R2        2.66577   0.00001   0.00000   0.00009   0.00009   2.66586
    R3        2.57503  -0.00007   0.00000  -0.00021  -0.00021   2.57482
    R4        2.04672  -0.00001   0.00000  -0.00004  -0.00004   2.04667
    R5        2.65637   0.00007   0.00000   0.00019   0.00019   2.65656
    R6        2.63609   0.00004   0.00000   0.00014   0.00014   2.63622
    R7        2.05119   0.00000   0.00000   0.00000   0.00000   2.05118
    R8        2.60509  -0.00002   0.00000  -0.00008  -0.00008   2.60501
    R9        2.04863   0.00001   0.00000   0.00002   0.00002   2.04865
   R10        2.58516  -0.00003   0.00000  -0.00004  -0.00004   2.58512
   R11        2.59161   0.00002   0.00000   0.00005   0.00005   2.59166
   R12        2.04095  -0.00001   0.00000  -0.00002  -0.00002   2.04093
   R13        2.66705  -0.00004   0.00000  -0.00014  -0.00014   2.66691
   R14        2.59966  -0.00001   0.00000  -0.00004  -0.00004   2.59963
   R15        1.89789   0.00001   0.00000   0.00002   0.00002   1.89791
   R16        2.70247   0.00000   0.00000  -0.00001  -0.00001   2.70246
   R17        2.04046  -0.00001   0.00000  -0.00002  -0.00002   2.04045
   R18        2.65618   0.00000   0.00000   0.00003   0.00003   2.65621
   R19        2.05970  -0.00001   0.00000  -0.00002  -0.00002   2.05968
   R20        2.07372  -0.00001   0.00000  -0.00003  -0.00003   2.07369
   R21        2.07372  -0.00001   0.00000  -0.00003  -0.00003   2.07369
    A1        2.11324  -0.00001   0.00000  -0.00009  -0.00009   2.11314
    A2        2.17030   0.00002   0.00000   0.00012   0.00012   2.17042
    A3        1.99965  -0.00001   0.00000  -0.00003  -0.00003   1.99963
    A4        2.12400   0.00000   0.00000   0.00002   0.00002   2.12402
    A5        2.06731  -0.00001   0.00000  -0.00002  -0.00002   2.06728
    A6        2.09188   0.00001   0.00000   0.00000   0.00000   2.09188
    A7        2.12313   0.00000   0.00000  -0.00002  -0.00002   2.12311
    A8        2.05775   0.00000   0.00000  -0.00002  -0.00002   2.05773
    A9        2.10230   0.00000   0.00000   0.00004   0.00004   2.10234
   A10        1.91212  -0.00002   0.00000  -0.00008  -0.00008   1.91204
   A11        2.26633  -0.00001   0.00000  -0.00015  -0.00015   2.26618
   A12        2.10474   0.00003   0.00000   0.00023   0.00023   2.10496
   A13        2.12421  -0.00001   0.00000  -0.00006  -0.00006   2.12416
   A14        2.28422   0.00001   0.00000   0.00006   0.00006   2.28428
   A15        1.87475  -0.00001   0.00000   0.00000   0.00000   1.87475
   A16        2.08802   0.00001   0.00000   0.00008   0.00008   2.08810
   A17        2.33058  -0.00001   0.00000  -0.00010  -0.00010   2.33048
   A18        1.86459   0.00001   0.00000   0.00002   0.00002   1.86461
   A19        1.86751   0.00001   0.00000   0.00003   0.00003   1.86754
   A20        2.19458  -0.00001   0.00000  -0.00002  -0.00002   2.19456
   A21        2.22109   0.00000   0.00000  -0.00001  -0.00001   2.22109
   A22        2.11584   0.00002   0.00000   0.00011   0.00011   2.11596
   A23        2.05633   0.00000   0.00000   0.00004   0.00004   2.05638
   A24        2.11101  -0.00002   0.00000  -0.00016  -0.00016   2.11085
   A25        1.90581   0.00001   0.00000   0.00003   0.00003   1.90584
   A26        2.18660  -0.00002   0.00000  -0.00011  -0.00011   2.18649
   A27        2.19077   0.00000   0.00000   0.00008   0.00008   2.19085
   A28        2.05280   0.00000   0.00000   0.00000   0.00000   2.05280
   A29        1.85403   0.00000   0.00000   0.00002   0.00002   1.85405
   A30        1.94752  -0.00001   0.00000  -0.00005  -0.00005   1.94747
   A31        1.94752  -0.00001   0.00000  -0.00005  -0.00005   1.94747
   A32        1.90497   0.00000   0.00000   0.00004   0.00004   1.90500
   A33        1.90497   0.00000   0.00000   0.00004   0.00004   1.90500
   A34        1.90363   0.00000   0.00000   0.00001   0.00001   1.90364
    D1       -3.14159   0.00000   0.00000   0.00000   0.00000   3.14159
    D2        0.00000   0.00000   0.00000   0.00000   0.00000   0.00000
    D3        0.00000   0.00000   0.00000   0.00000   0.00000   0.00000
    D4        3.14159   0.00000   0.00000   0.00000   0.00000   3.14159
    D5        0.00000   0.00000   0.00000   0.00000   0.00000   0.00000
    D6        3.14159   0.00000   0.00000   0.00000   0.00000   3.14159
    D7       -3.14159   0.00000   0.00000   0.00000   0.00000   3.14159
    D8        0.00000   0.00000   0.00000   0.00000   0.00000   0.00000
    D9        0.00000   0.00000   0.00000   0.00000   0.00000   0.00000
   D10       -3.14159   0.00000   0.00000   0.00000   0.00000   3.14159
   D11        0.00000   0.00000   0.00000   0.00000   0.00000   0.00000
   D12       -3.14159   0.00000   0.00000   0.00000   0.00000  -3.14159
   D13        3.14159   0.00000   0.00000   0.00000   0.00000   3.14159
   D14        0.00000   0.00000   0.00000   0.00000   0.00000   0.00000
   D15       -3.14159   0.00000   0.00000   0.00000   0.00000  -3.14159
   D16        0.00000   0.00000   0.00000   0.00000   0.00000   0.00000
   D17        0.00000   0.00000   0.00000   0.00000   0.00000   0.00000
   D18        3.14159   0.00000   0.00000   0.00000   0.00000   3.14159
   D19        0.00000   0.00000   0.00000   0.00000   0.00000   0.00000
   D20        3.14159   0.00000   0.00000   0.00000   0.00000   3.14159
   D21        3.14159   0.00000   0.00000   0.00000   0.00000   3.14159
   D22        0.00000   0.00000   0.00000   0.00000   0.00000   0.00000
   D23        0.00000   0.00000   0.00000   0.00000   0.00000   0.00000
   D24       -3.14159   0.00000   0.00000   0.00000   0.00000   3.14159
   D25       -3.14159   0.00000   0.00000   0.00000   0.00000   3.14159
   D26        0.00000   0.00000   0.00000   0.00000   0.00000   0.00000
   D27        0.00000   0.00000   0.00000   0.00000   0.00000   0.00000
   D28        3.14159   0.00000   0.00000   0.00000   0.00000   3.14159
   D29       -3.14159   0.00000   0.00000   0.00000   0.00000   3.14159
   D30       -0.00001   0.00000   0.00000   0.00001   0.00001   0.00000
   D31        0.00000   0.00000   0.00000   0.00000   0.00000   0.00000
   D32        3.14159   0.00000   0.00000   0.00000   0.00000   3.14159
   D33       -3.14159   0.00000   0.00000   0.00000   0.00000   3.14159
   D34        0.00000   0.00000   0.00000   0.00000   0.00000   0.00000
   D35       -3.14159   0.00000   0.00000   0.00000   0.00000   3.14159
   D36        0.00001   0.00000   0.00000  -0.00001  -0.00001   0.00000
   D37        0.00000   0.00000   0.00000   0.00000   0.00000   0.00000
   D38       -3.14159   0.00000   0.00000  -0.00001  -0.00001  -3.14159
   D39        3.14159   0.00000   0.00000   0.00000   0.00000   3.14159
   D40        0.00000   0.00000   0.00000   0.00000   0.00000   0.00000
   D41        0.00000   0.00000   0.00000   0.00000   0.00000   0.00000
   D42        3.14159   0.00000   0.00000   0.00000   0.00000   3.14159
   D43        3.14159   0.00000   0.00000   0.00000   0.00000  -3.14159
   D44       -1.06728   0.00000   0.00000   0.00003   0.00003  -1.06725
   D45        1.06728   0.00000   0.00000  -0.00003  -0.00003   1.06725
         Item               Value     Threshold  Converged?
 Maximum Force            0.000072     0.000450     YES
 RMS     Force            0.000014     0.000300     YES
 Maximum Displacement     0.000336     0.001800     YES
 RMS     Displacement     0.000073     0.001200     YES
 Predicted change in Energy=-3.800966D-08
 Optimization completed.
    -- Stationary point found.
                           ----------------------------
                           !   Optimized Parameters   !
                           ! (Angstroms and Degrees)  !
 --------------------------                            --------------------------
 ! Name  Definition              Value          Derivative Info.                !
 --------------------------------------------------------------------------------
 ! R1    R(1,2)                  1.3839         -DE/DX =    0.0                 !
 ! R2    R(1,12)                 1.4107         -DE/DX =    0.0                 !
 ! R3    R(1,14)                 1.3626         -DE/DX =   -0.0001              !
 ! R4    R(2,8)                  1.0831         -DE/DX =    0.0                 !
 ! R5    R(2,9)                  1.4057         -DE/DX =    0.0001              !
 ! R6    R(3,6)                  1.395          -DE/DX =    0.0                 !
 ! R7    R(3,11)                 1.0854         -DE/DX =    0.0                 !
 ! R8    R(3,12)                 1.3786         -DE/DX =    0.0                 !
 ! R9    R(4,12)                 1.0841         -DE/DX =    0.0                 !
 ! R10   R(5,10)                 1.368          -DE/DX =    0.0                 !
 ! R11   R(5,13)                 1.3714         -DE/DX =    0.0                 !
 ! R12   R(5,16)                 1.08           -DE/DX =    0.0                 !
 ! R13   R(6,9)                  1.4113         -DE/DX =    0.0                 !
 ! R14   R(6,13)                 1.3757         -DE/DX =    0.0                 !
 ! R15   R(7,13)                 1.0043         -DE/DX =    0.0                 !
 ! R16   R(9,10)                 1.4301         -DE/DX =    0.0                 !
 ! R17   R(10,15)                1.0798         -DE/DX =    0.0                 !
 ! R18   R(14,17)                1.4056         -DE/DX =    0.0                 !
 ! R19   R(17,18)                1.0899         -DE/DX =    0.0                 !
 ! R20   R(17,19)                1.0974         -DE/DX =    0.0                 !
 ! R21   R(17,20)                1.0974         -DE/DX =    0.0                 !
 ! A1    A(2,1,12)             121.0795         -DE/DX =    0.0                 !
 ! A2    A(2,1,14)             124.349          -DE/DX =    0.0                 !
 ! A3    A(12,1,14)            114.5716         -DE/DX =    0.0                 !
 ! A4    A(1,2,8)              121.6964         -DE/DX =    0.0                 !
 ! A5    A(1,2,9)              118.4479         -DE/DX =    0.0                 !
 ! A6    A(8,2,9)              119.8557         -DE/DX =    0.0                 !
 ! A7    A(6,3,11)             121.6465         -DE/DX =    0.0                 !
 ! A8    A(6,3,12)             117.9004         -DE/DX =    0.0                 !
 ! A9    A(11,3,12)            120.453          -DE/DX =    0.0                 !
 ! A10   A(10,5,13)            109.5563         -DE/DX =    0.0                 !
 ! A11   A(10,5,16)            129.8511         -DE/DX =    0.0                 !
 ! A12   A(13,5,16)            120.5926         -DE/DX =    0.0                 !
 ! A13   A(3,6,9)              121.7085         -DE/DX =    0.0                 !
 ! A14   A(3,6,13)             130.8762         -DE/DX =    0.0                 !
 ! A15   A(9,6,13)             107.4152         -DE/DX =    0.0                 !
 ! A16   A(2,9,6)              119.6347         -DE/DX =    0.0                 !
 ! A17   A(2,9,10)             133.5322         -DE/DX =    0.0                 !
 ! A18   A(6,9,10)             106.8331         -DE/DX =    0.0                 !
 ! A19   A(5,10,9)             107.0006         -DE/DX =    0.0                 !
 ! A20   A(5,10,15)            125.7402         -DE/DX =    0.0                 !
 ! A21   A(9,10,15)            127.2592         -DE/DX =    0.0                 !
 ! A22   A(1,12,3)             121.229          -DE/DX =    0.0                 !
 ! A23   A(1,12,4)             117.8192         -DE/DX =    0.0                 !
 ! A24   A(3,12,4)             120.9518         -DE/DX =    0.0                 !
 ! A25   A(5,13,6)             109.1948         -DE/DX =    0.0                 !
 ! A26   A(5,13,7)             125.2832         -DE/DX =    0.0                 !
 ! A27   A(6,13,7)             125.522          -DE/DX =    0.0                 !
 ! A28   A(1,14,17)            117.6167         -DE/DX =    0.0                 !
 ! A29   A(14,17,18)           106.2281         -DE/DX =    0.0                 !
 ! A30   A(14,17,19)           111.5848         -DE/DX =    0.0                 !
 ! A31   A(14,17,20)           111.5848         -DE/DX =    0.0                 !
 ! A32   A(18,17,19)           109.1466         -DE/DX =    0.0                 !
 ! A33   A(18,17,20)           109.1466         -DE/DX =    0.0                 !
 ! A34   A(19,17,20)           109.0698         -DE/DX =    0.0                 !
 ! D1    D(12,1,2,8)           180.0            -DE/DX =    0.0                 !
 ! D2    D(12,1,2,9)             0.0            -DE/DX =    0.0                 !
 ! D3    D(14,1,2,8)             0.0            -DE/DX =    0.0                 !
 ! D4    D(14,1,2,9)           180.0            -DE/DX =    0.0                 !
 ! D5    D(2,1,12,3)             0.0            -DE/DX =    0.0                 !
 ! D6    D(2,1,12,4)           180.0            -DE/DX =    0.0                 !
 ! D7    D(14,1,12,3)          180.0            -DE/DX =    0.0                 !
 ! D8    D(14,1,12,4)            0.0            -DE/DX =    0.0                 !
 ! D9    D(2,1,14,17)            0.0001         -DE/DX =    0.0                 !
 ! D10   D(12,1,14,17)         180.0001         -DE/DX =    0.0                 !
 ! D11   D(1,2,9,6)              0.0            -DE/DX =    0.0                 !
 ! D12   D(1,2,9,10)          -179.9999         -DE/DX =    0.0                 !
 ! D13   D(8,2,9,6)            180.0            -DE/DX =    0.0                 !
 ! D14   D(8,2,9,10)             0.0001         -DE/DX =    0.0                 !
 ! D15   D(11,3,6,9)          -180.0            -DE/DX =    0.0                 !
 ! D16   D(11,3,6,13)           -0.0001         -DE/DX =    0.0                 !
 ! D17   D(12,3,6,9)             0.0            -DE/DX =    0.0                 !
 ! D18   D(12,3,6,13)          179.9999         -DE/DX =    0.0                 !
 ! D19   D(6,3,12,1)             0.0            -DE/DX =    0.0                 !
 ! D20   D(6,3,12,4)           180.0            -DE/DX =    0.0                 !
 ! D21   D(11,3,12,1)          180.0            -DE/DX =    0.0                 !
 ! D22   D(11,3,12,4)            0.0            -DE/DX =    0.0                 !
 ! D23   D(13,5,10,9)           -0.0001         -DE/DX =    0.0                 !
 ! D24   D(13,5,10,15)         180.0            -DE/DX =    0.0                 !
 ! D25   D(16,5,10,9)          180.0            -DE/DX =    0.0                 !
 ! D26   D(16,5,10,15)           0.0001         -DE/DX =    0.0                 !
 ! D27   D(10,5,13,6)            0.0001         -DE/DX =    0.0                 !
 ! D28   D(10,5,13,7)          179.9997         -DE/DX =    0.0                 !
 ! D29   D(16,5,13,6)          180.0            -DE/DX =    0.0                 !
 ! D30   D(16,5,13,7)           -0.0004         -DE/DX =    0.0                 !
 ! D31   D(3,6,9,2)              0.0            -DE/DX =    0.0                 !
 ! D32   D(3,6,9,10)           179.9999         -DE/DX =    0.0                 !
 ! D33   D(13,6,9,2)           180.0001         -DE/DX =    0.0                 !
 ! D34   D(13,6,9,10)            0.0            -DE/DX =    0.0                 !
 ! D35   D(3,6,13,5)           180.0001         -DE/DX =    0.0                 !
 ! D36   D(3,6,13,7)             0.0004         -DE/DX =    0.0                 !
 ! D37   D(9,6,13,5)            -0.0001         -DE/DX =    0.0                 !
 ! D38   D(9,6,13,7)          -179.9997         -DE/DX =    0.0                 !
 ! D39   D(2,9,10,5)           179.9999         -DE/DX =    0.0                 !
 ! D40   D(2,9,10,15)           -0.0001         -DE/DX =    0.0                 !
 ! D41   D(6,9,10,5)             0.0            -DE/DX =    0.0                 !
 ! D42   D(6,9,10,15)          179.9999         -DE/DX =    0.0                 !
 ! D43   D(1,14,17,18)        -180.0001         -DE/DX =    0.0                 !
 ! D44   D(1,14,17,19)         -61.1508         -DE/DX =    0.0                 !
 ! D45   D(1,14,17,20)          61.1506         -DE/DX =    0.0                 !
 --------------------------------------------------------------------------------
 GradGradGradGradGradGradGradGradGradGradGradGradGradGradGradGradGradGrad

 1\1\GINC-NC78\Freq\UPBE1PBE\6-311++G(d,p)\C9H9N1O1\C.6137\16-Jul-2025\
 0\\#N Geom=AllCheck Guess=TCheck SCRF=Check GenChk UPBE1PBE/6-311++G(d
 ,p) Freq\\Nu\\0,1\C,-3.8073321869,1.3010549521,-0.0126183234\C,-2.7261
 724771,2.1634795338,-0.0629317907\C,-2.3598520062,-0.6448650043,0.1457
 386959\H,-4.5062226855,-0.7200382908,0.1264546439\C,0.7684427487,1.152
 8429915,0.050950968\C,-1.266897536,0.2204766159,0.0953485825\H,0.50613
 64584,-0.9422601169,0.2004438508\H,-2.8567537837,3.2357065578,-0.14249
 47536\C,-1.4316498078,1.6183287099,-0.0083142428\C,-0.1206345972,2.189
 0124358,-0.0347366042\H,-2.2319768324,-1.7197940364,0.2254679841\C,-3.
 6221880164,-0.0935621334,0.0910441385\N,0.0847274927,-0.033400108,0.12
 94226306\O,-5.1101485822,1.697984361,-0.0565411305\H,0.1354807586,3.23
 54056664,-0.1079596166\H,1.848317199,1.1666540959,0.0624023495\C,-5.36
 83831157,3.0757856258,-0.1598239115\H,-6.4529802981,3.181732054,-0.180
 0477249\H,-4.9688882785,3.6270187342,0.7008508559\H,-4.9483244538,3.49
 72373552,-1.0818566066\\Version=ES64L-G09RevD.01\State=1-A\HF=-477.908
 211\S2=0.\S2-1=0.\S2A=0.\RMSD=3.269e-09\RMSF=2.845e-05\ZeroPoint=0.162
 7204\Thermal=0.1716351\Dipole=0.6652517,-0.108602,0.0155772\DipoleDeri
 v=1.4115409,-0.5849857,0.0582998,-0.6086406,0.2460073,-0.0213465,0.060
 0213,-0.0210737,0.05144,-0.2267356,0.1639607,-0.012581,-0.1479217,-0.0
 053616,-0.0137527,0.010124,-0.0101554,-0.1699845,0.3167475,0.1974755,-
 0.0090039,0.0465075,0.1120064,-0.0184671,0.001986,-0.0167252,-0.147791
 2,-0.0105258,-0.0670767,0.0030077,-0.0581248,0.0429251,0.0072757,0.002
 356,0.0071724,0.1515808,-0.2415246,0.0099548,-0.0020443,-0.1487135,0.6
 329656,-0.0570476,0.0095084,-0.0552178,-0.1229607,0.3059168,-0.172984,
 0.0157134,-0.493536,-0.1961704,0.0111693,0.0390499,0.0148653,0.0348289
 ,0.187663,-0.0584255,0.0028117,-0.0635693,0.2082968,0.0068633,0.003187
 7,0.0069209,0.3121843,0.0850194,0.0044546,-0.0010532,0.0528037,-0.0618
 304,0.0159004,-0.0045729,0.0153427,0.1470494,0.3155744,-0.0787661,0.00
 97923,0.3444109,-0.0647661,0.0060497,-0.021014,0.0011687,-0.0365656,-0
 .1990916,0.235834,-0.0165883,0.0355636,-0.0856194,-0.0115139,-0.002009
 1,-0.0092046,-0.2487673,0.0593973,0.0424619,-0.0040674,0.0189385,-0.09
 1244,0.0173463,-0.0023547,0.0176177,0.1427218,-0.3320204,-0.0484887,0.
 0017943,0.330248,-0.0170221,-0.0081684,-0.0257773,-0.0125368,-0.180934
 8,-0.435022,-0.0189594,-0.0007314,0.3300098,-0.6385171,0.0319459,-0.02
 61396,0.0279241,-0.2543349,-1.5602656,0.585094,-0.0575207,0.7376911,-0
 .884408,0.0535154,-0.0686293,0.0517554,-0.2707407,0.0518032,-0.0268661
 ,0.00052,-0.0566557,-0.0348087,0.0147137,0.0026887,0.0150577,0.1752159
 ,-0.0317459,0.0000796,-0.0024165,0.0130194,0.0882435,0.0066293,-0.0033
 591,0.0064803,0.176733,0.3426106,-0.102924,0.0076946,-0.4987341,0.8051
 053,-0.0406954,0.0365095,-0.0361302,0.3281698,-0.1482153,0.079788,-0.0
 086472,0.0172237,0.0528753,0.0034744,-0.0040925,0.0041961,0.0975194,0.
 0558455,-0.0853674,-0.083053,0.0728704,-0.0635948,-0.0390184,-0.035386
 2,-0.0932267,-0.0848345,0.0530283,-0.0742594,0.0980731,0.0766093,-0.04
 50827,0.0351264,0.0279033,0.0857693,-0.100529\Polar=161.6215446,-5.896
 786,118.9070662,1.5185722,-3.8334098,67.480618\PG=C01 [X(C9H9N1O1)]\NI
 mag=0\\0.69003348,0.03077319,0.69290580,0.00394257,-0.03887806,0.15686
 104,-0.25018371,-0.07685522,0.00343510,0.68051994,-0.13893079,-0.23214
 384,0.01071676,0.00355414,0.74503315,0.00795413,0.01143275,-0.06366215
 ,0.00624558,-0.04570830,0.11999865,0.01580911,0.08092557,-0.00573845,-
 0.05307854,-0.01011507,0.00013276,0.69556437,0.03288331,-0.00934344,0.
 00124556,-0.00563312,-0.00233418,0.00005061,-0.02323751,0.74592979,-0.
 00224103,0.00179966,0.00239918,-0.00019350,-0.00000108,-0.00074859,0.0
 0832381,-0.04579378,0.12400157,0.00436450,0.00396166,-0.00027922,0.000
 59561,0.00098492,-0.00011009,-0.01698760,-0.01782674,0.00108123,0.2591
 1352,-0.02789123,-0.01256039,0.00085248,0.00210947,-0.00548914,0.00070
 962,0.01207045,0.01091234,-0.00052512,0.14669794,0.16014335,0.00203965
 ,0.00121987,0.00350329,-0.00019197,0.00069665,0.00387141,-0.00109526,-
 0.00086996,0.00183741,-0.00795759,-0.00828286,0.02363549,-0.00306539,-
 0.01029512,0.00070421,0.00650925,-0.00438968,0.00035038,0.00587208,0.0
 0778461,-0.00051979,-0.00034370,0.00028944,-0.00002301,0.87816600,0.00
 379076,0.01086431,-0.00068460,-0.01778103,-0.00237270,0.00024696,0.003
 16385,-0.00036285,0.00019437,0.00072078,-0.00021896,0.00001148,-0.0531
 2432,0.63018129,-0.00032126,-0.00084710,0.00091770,0.00132529,0.000401
 46,0.00382341,-0.00018341,0.00024764,0.00178514,-0.00005441,0.00000651
 ,-0.00017655,0.01263964,-0.03792231,0.12058842,-0.01063382,-0.03168202
 ,0.00223360,0.02041223,0.03500594,-0.00235775,-0.23497738,-0.13250635,
 0.00752647,-0.00291918,0.00338886,-0.00036056,-0.07645860,-0.04310009,
 0.00212300,0.77942557,-0.01572000,-0.05291053,0.00335606,0.05901268,-0
 .00906489,0.00162329,-0.08723236,-0.22409772,0.01158212,0.00378550,-0.
 00034731,0.00057499,-0.02938189,-0.00650178,0.00097154,0.09587112,0.69
 326899,0.00107156,0.00317197,-0.00453802,-0.00410542,0.00134642,0.0037
 3798,0.00423046,0.01105992,-0.05193731,-0.00038943,0.00057042,0.006905
 25,0.00112440,0.00081333,0.01145343,0.00041075,-0.03926308,0.14160820,
 -0.00002969,-0.00057194,0.00004498,0.00138791,0.00167217,-0.00012411,0
 .00221883,-0.00009285,0.00004909,0.00000504,-0.00000505,-0.00000123,0.
 01599689,-0.01456568,0.00133727,-0.00060205,0.02977717,-0.00210405,0.1
 3671481,0.00064732,0.00062252,-0.00006112,-0.00073769,-0.00034433,0.00
 013254,-0.00056432,0.00129496,-0.00020648,-0.00005259,0.00001245,0.000
 00897,0.01598856,-0.01401865,0.00062124,0.00029493,0.00243996,-0.00061
 923,-0.16408244,0.41290802,-0.00004379,-0.00007520,-0.00031466,0.00005
 136,0.00016036,0.00158215,0.00008345,-0.00020104,-0.00143640,0.0000022
 3,0.00000951,0.00014327,-0.00088698,0.00026904,-0.00804708,0.00004200,
 -0.00027907,-0.00609237,0.01344342,-0.03145879,0.00919814,0.01009875,-
 0.02327029,0.00176968,-0.06062582,0.03272848,-0.00274071,-0.00137599,-
 0.00007808,0.00000112,0.00021164,-0.00132922,0.00009760,0.00033256,0.0
 0057547,-0.00003273,-0.00426397,0.00090384,-0.00018090,-0.00052218,0.0
 0001096,-0.00001086,0.06107206,0.00593144,-0.01484257,0.00140673,0.030
 79927,-0.33855573,0.02284852,-0.00004583,0.00053467,-0.00011081,0.0003
 5460,-0.00081988,0.00007395,0.00027563,-0.00050617,0.00000637,0.001321
 26,0.00171949,0.00030609,0.00013017,0.00009282,0.00002020,-0.03892686,
 0.35971773,-0.00035616,0.00106993,0.00345921,-0.00260028,0.02287076,-0
 .03127198,-0.00000123,-0.00011119,-0.00097212,-0.00002499,0.00005453,0
 .00013552,-0.00001090,0.00000983,-0.00046320,-0.00021128,0.00030129,0.
 00569043,-0.00001953,0.00001882,0.00034803,0.00329492,-0.02510024,0.02
 296124,-0.05844689,-0.04417213,0.00250702,-0.28224587,0.09908446,-0.00
 986332,0.03947253,-0.01802223,0.00169431,-0.00018569,0.00132396,-0.000
 08435,-0.06718158,0.04913802,-0.00445025,-0.11812354,-0.00408343,-0.00
 015614,-0.00807246,0.00046847,-0.00014111,0.00189631,-0.00022222,0.000
 01708,0.77457947,-0.00271883,0.05297290,-0.00366970,0.07091293,-0.1551
 6054,0.00829265,-0.04833630,-0.02825651,0.00196008,0.00040562,-0.00048
 197,-0.00004970,0.00555139,0.02183176,-0.00090638,0.04114723,-0.278927
 46,0.01504254,-0.00003299,0.00190417,-0.00005187,0.02940183,-0.0081971
 3,0.00106825,-0.06458498,0.62459046,-0.00051075,-0.00414782,0.00329098
 ,-0.00781251,0.00861758,-0.05320145,0.00390117,0.00230974,0.00620326,-
 0.00001750,-0.00003912,-0.00122643,-0.00127714,-0.00040356,0.00851647,
 -0.00344888,0.01452083,-0.07991301,-0.00010452,-0.00004608,0.00119948,
 -0.00213952,0.00072657,0.00174099,0.01195447,-0.03560060,0.14852735,0.
 00764326,0.02164991,-0.00153536,-0.04523649,-0.01084645,0.00026154,-0.
 00603647,0.00019443,-0.00009169,0.00034264,-0.00021704,0.00001760,-0.2
 3459154,0.14491075,-0.01255495,0.00499589,-0.04167835,0.00298198,-0.00
 193656,-0.00480849,0.00030478,0.00184036,-0.00083435,0.00011500,-0.232
 24780,-0.06870099,0.00298938,0.57858599,0.00345803,0.00018244,0.000325
 89,0.01137525,0.01496755,-0.00091889,-0.00106503,-0.00648202,0.0005095
 6,-0.00020055,0.00007577,0.00000575,0.15925445,-0.28254771,0.01798585,
 -0.01477152,-0.03277754,0.00290875,-0.00549716,-0.00235875,0.00025346,
 -0.00070847,0.00109563,-0.00029639,-0.07511113,-0.14272951,0.00531468,
 0.00058186,0.86610279,-0.00021099,0.00053573,0.00406974,-0.00135614,-0
 .00117522,0.00061272,0.,0.00052409,0.00064812,0.00001640,0.00000556,0.
 00018633,-0.01359917,0.01782042,-0.06217412,0.00102318,0.00259837,0.00
 934145,0.00035486,0.00026140,0.00197905,0.00010583,-0.00029784,-0.0028
 4052,0.00345599,0.00538864,-0.05817539,0.00536221,-0.05503360,0.114117
 13,-0.00427531,0.00077780,-0.00020340,-0.00127971,0.00008162,-0.000010
 19,-0.06193503,0.02974698,-0.00250001,0.00099565,-0.00050702,0.0001049
 0,0.00006360,-0.00074033,0.00005984,0.00850849,-0.02443103,0.00184346,
 -0.00057486,0.00021748,-0.00002448,0.00009628,0.00001369,0.00001118,-0
 .00349424,-0.00211617,0.00004958,0.00000673,-0.00135252,0.00010058,0.0
 5893481,0.00155255,0.00241228,0.00045747,-0.00046537,0.00046980,-0.000
 10594,0.03123073,-0.33471601,0.02232945,0.00012014,0.00083160,-0.00041
 581,-0.00058419,-0.00092489,0.00002772,0.00677922,-0.01441133,0.001337
 18,-0.00098497,-0.00050846,0.00003843,0.00004593,-0.00011336,-0.000061
 08,-0.00323959,0.00059333,0.00032447,0.00017373,-0.00076006,0.00004446
 ,-0.03432347,0.35460338,-0.00025980,0.00044854,0.00841463,0.00002963,-
 0.00009964,-0.00090413,-0.00260805,0.02231232,-0.03459355,0.00005925,-
 0.00042304,-0.00486761,0.00004847,0.00002592,-0.00045286,-0.00042862,0
 .00097721,0.00280644,0.00006306,0.00005230,0.00017242,0.00000884,-0.00
 006145,-0.00095502,0.00013137,0.00033743,0.00554068,-0.00001053,0.0000
 2685,-0.00017906,0.00291210,-0.02452951,0.02491505,-0.11501834,-0.0280
 1642,0.00147645,0.03557950,-0.01642080,0.00151218,-0.34410259,0.125855
 89,-0.01253186,-0.24505989,-0.13618942,0.00744821,-0.00713348,0.000002
 97,-0.00008799,-0.06430760,-0.02911781,0.00131461,-0.00045326,0.000205
 24,-0.00001792,-0.00400151,-0.00380696,0.00015953,-0.01921569,0.022504
 56,-0.00181125,0.00313608,0.00298922,-0.00017936,0.00168662,-0.0011345
 0,0.00007381,0.77371438,0.04056875,-0.28971758,0.01674013,-0.05867813,
 -0.03311229,0.00232459,0.07099911,-0.16583782,0.00910916,-0.13733557,-
 0.15587369,0.00748960,0.00503123,-0.01039474,0.00084949,0.00626558,0.0
 5455711,-0.00349923,0.00049637,-0.00074978,0.00004608,-0.00266139,-0.0
 0022283,0.00043651,0.03476282,-0.03186099,0.00241310,-0.01395426,-0.00
 102662,-0.00009942,0.02930060,-0.00856172,0.00113949,0.00898472,0.6635
 6047,-0.00351649,0.01594905,-0.06739754,0.00458849,0.00281199,0.007964
 33,-0.00853829,0.00974186,-0.05276809,0.00753165,0.00750281,-0.0316939
 7,-0.00045406,0.00079147,0.00041390,-0.00126128,-0.00390732,0.00576822
 ,-0.00003911,0.00004271,-0.00019920,0.00007614,0.00042330,0.00616503,-
 0.00270366,0.00227173,-0.00441801,0.00105413,0.00009601,-0.00017618,-0
 .00214186,0.00078845,0.00236634,0.00689610,-0.03953118,0.12207806,0.00
 492424,0.00830599,-0.00053320,-0.00412713,-0.00241561,0.00011199,-0.04
 259041,0.00261617,-0.00065374,-0.00083662,0.00026170,-0.00004640,-0.16
 891765,-0.09292680,0.00535008,-0.29787948,0.04778616,-0.00635323,-0.14
 487777,0.15252833,-0.01280837,-0.00060266,0.00016811,-0.00002067,-0.02
 665956,0.04194820,-0.00347749,0.00093019,-0.00312764,0.00006188,0.0022
 7428,0.00068888,0.00000681,0.01002613,-0.00584106,0.00048248,0.6878574
 0,-0.00492705,-0.00919496,0.00051995,0.00758249,-0.00441474,0.00051166
 ,-0.01772261,0.01888966,-0.00175665,-0.00152112,0.00092850,0.00002661,
 -0.09270160,-0.27212181,0.01537506,0.03065838,-0.13244552,0.00644986,0
 .15398566,-0.40180007,0.03124047,0.00150724,-0.00032148,0.00005014,0.0
 1529311,-0.04069026,0.00387167,0.02537821,-0.08515207,0.00760566,0.001
 53678,0.00197071,-0.00031967,-0.00644478,0.00314389,0.00006532,-0.1206
 2157,0.91799470,0.00043019,0.00067262,-0.00131606,-0.00061593,0.000396
 29,0.00137615,0.00082696,-0.00152203,-0.00231127,0.00008339,0.00004717
 ,0.00153247,0.00533359,0.01537218,-0.04729406,-0.00510611,0.00664736,-
 0.04924725,-0.01291461,0.03122399,0.00053752,-0.00011815,0.00003469,0.
 00012458,-0.00153686,0.00417920,0.00974698,-0.00201344,0.00727684,0.01
 474785,-0.00005492,-0.00032945,-0.00264055,0.00052645,0.00007228,0.005
 06304,0.01599800,-0.06369519,0.06695958,-0.28055386,0.02166272,-0.0043
 2213,-0.04812962,0.01034206,-0.00140120,0.00038614,-0.00249197,0.00014
 700,0.00062727,-0.00044299,0.00007105,-0.00161597,0.00454564,-0.000341
 49,0.00254866,-0.00182162,0.00017708,-0.00010461,-0.00064096,0.0000455
 3,0.00096738,0.00097186,-0.00002040,-0.00158691,-0.00480885,0.00024818
 ,0.00201707,0.00132760,-0.00008427,-0.00021961,0.00041356,-0.00003676,
 -0.01909650,0.02284090,-0.00194703,-0.00825365,0.00006670,-0.00010412,
 0.44138338,0.06351699,-0.11693480,0.00614785,-0.01923550,0.01423618,-0
 .00067004,-0.00649035,-0.00579372,0.00059218,0.00000700,0.00256721,-0.
 00038603,0.00153053,-0.00335116,0.00021073,0.00074012,0.00469401,-0.00
 042807,-0.00006236,0.00021541,-0.00001682,0.00244780,-0.00001420,-0.00
 021811,0.00191596,-0.00705460,0.00106325,-0.00312334,0.00058620,-0.000
 00999,0.00180885,-0.00100142,0.00011976,0.05822263,-0.02388057,0.00281
 378,0.00323321,0.00144871,-0.00004273,-0.11833329,0.46610384,-0.007369
 14,0.00566513,-0.04304646,0.00075200,-0.00032888,0.00811227,0.00043807
 ,0.00063830,0.00332754,0.00003829,-0.00039122,-0.00270762,-0.00012200,
 0.00024551,-0.00071830,-0.00000945,-0.00045760,-0.00127003,0.00000340,
 -0.00002349,-0.00000399,-0.00012785,-0.00023514,-0.00338251,-0.0002413
 7,0.00098568,0.00717268,0.00023975,0.00004135,0.00094362,-0.00013834,0
 .00010367,0.00034795,-0.00452279,0.00240568,0.00531884,-0.00033460,-0.
 00007927,0.00035117,0.01288724,-0.03013254,0.07328604,-0.00001200,-0.0
 0005575,0.00000685,0.00183257,0.00037433,0.00001206,0.00103885,-0.0013
 7439,0.00010290,-0.00001953,0.00003130,-0.00000273,0.01066240,0.018666
 58,-0.00122316,-0.00631432,-0.00145553,-0.00000474,0.00096242,0.000849
 34,-0.00007822,-0.00046598,0.00064429,-0.00005378,0.00296267,-0.024771
 31,0.00184871,-0.07300121,-0.07090211,0.00460101,-0.00040525,-0.000324
 28,0.00001718,0.00004329,0.00008886,-0.00000345,-0.00302286,0.00464363
 ,-0.00042788,-0.00010498,0.00014610,-0.00001263,0.06571143,-0.00014309
 ,-0.00040788,0.00000954,0.00023193,0.00046780,-0.00014608,0.00049466,-
 0.00033113,0.00008747,-0.00002225,0.00001104,0.00000037,-0.01065056,-0
 .01093198,0.00059241,-0.00095265,-0.00022241,0.00024417,-0.00065354,-0
 .00026450,0.00018522,-0.00047158,-0.00006750,0.00000898,0.00276754,-0.
 00255540,0.00014732,-0.06757243,-0.33981032,0.02218252,-0.00010756,-0.
 00000745,0.00001038,-0.00017104,0.00033454,-0.00004225,0.00261683,-0.0
 0145783,0.00048320,-0.00020456,0.00014741,-0.00000812,0.07445452,0.355
 00272,0.00001321,0.00001054,-0.00025483,0.00002243,-0.00014444,-0.0015
 6483,-0.00003317,0.00006592,0.00078692,0.00000117,0.00000098,0.0000195
 3,0.00091111,0.00093055,-0.00116421,-0.00004134,0.00023836,0.00326465,
 0.00003120,0.00020255,0.00236877,0.00002745,0.00002185,0.00012927,-0.0
 0015612,-0.00017036,-0.00095971,0.00435863,0.02214417,-0.02595963,0.00
 000140,0.00000788,0.00015166,0.00001548,-0.00003924,-0.00021561,-0.000
 28035,0.00050658,0.00472500,0.00001289,-0.00000407,0.00006878,-0.00489
 775,-0.02349922,0.02206731,0.00008650,0.00047322,-0.00003176,-0.000420
 88,-0.00055461,0.00002496,-0.00055125,0.00021643,-0.00004900,-0.000046
 11,0.00001800,0.00000427,-0.35835589,-0.00315278,-0.00359446,0.0011364
 3,-0.00162941,0.00010658,-0.00008611,-0.00039731,0.00004448,-0.0000193
 2,0.00003570,-0.00000502,-0.00115871,0.00220959,-0.00024224,-0.0067931
 4,-0.00610706,0.00033316,-0.00001976,-0.00003309,0.00000094,0.00014908
 ,-0.00033786,0.00002757,-0.00901872,0.00336933,-0.00032478,-0.00025527
 ,0.00002970,-0.00000204,0.00014571,0.00037699,0.00001485,0.37517597,0.
 00036680,-0.00001605,-0.00000531,0.00031664,0.00130938,-0.00002506,-0.
 00153992,0.00106835,0.00007410,-0.00011251,0.00006929,-0.00004489,0.00
 574582,-0.05949310,0.00244234,-0.00023397,-0.00591585,0.00058668,0.000
 45781,0.00074962,-0.00015375,-0.00006385,-0.00001055,0.00001391,0.0039
 7517,-0.00403549,0.00076892,0.01898995,0.01040359,-0.00032964,0.000049
 27,0.00001014,0.00000767,-0.00001313,-0.00074921,0.00004649,-0.0328326
 9,0.00316811,-0.00076425,0.00026606,0.00005462,-0.00002024,-0.00091099
 ,0.00016065,-0.00027853,0.00556391,0.05318043,-0.00002401,-0.00000408,
 -0.00014704,-0.00003846,-0.00003511,0.00091706,0.00007887,0.00009436,0
 .00232418,0.00001377,-0.00004338,-0.00052616,-0.00424234,0.00233967,-0
 .02707395,0.00000498,0.00057059,0.00213860,-0.00001777,-0.00016360,-0.
 00142317,0.00000223,0.00001506,0.00018955,-0.00037077,0.00074855,0.005
 83813,-0.00149386,-0.00061914,0.00289424,-0.00000506,0.00000672,0.0001
 0721,0.00000393,0.00004274,-0.00011161,0.00231076,-0.00034663,-0.00207
 563,-0.00001925,-0.00002296,-0.00026406,0.00010861,-0.00026367,-0.0035
 0049,0.00368665,-0.00231739,0.02067755,-0.01817370,0.04591108,-0.00350
 583,-0.00190895,0.00222068,-0.00017253,-0.00025247,0.00162482,-0.00013
 817,0.00016348,0.00044596,-0.00002394,0.00024278,-0.00009617,0.0000096
 2,0.00024114,0.00052459,-0.00004011,-0.00001455,0.00004116,-0.00000336
 ,-0.00249895,0.00165405,-0.00014703,0.00064632,0.00095072,-0.00006368,
 0.00004530,-0.00020886,0.00001735,-0.00036577,0.00008404,-0.00000808,-
 0.00469249,-0.00190718,0.00006214,0.00026019,0.00001839,0.00000533,-0.
 09062891,-0.00009034,-0.00034059,-0.00000554,0.00001231,-0.00000184,0.
 00001660,-0.00002290,0.00000133,0.62041257,0.02348840,-0.02238459,0.00
 160936,-0.00660815,0.00567799,-0.00056000,-0.00104894,-0.00082467,0.00
 015505,0.00009364,-0.00015056,-0.00002989,-0.00078704,0.00165691,-0.00
 012859,0.00160239,-0.00030976,0.00007068,0.00004292,-0.00025142,0.0000
 2000,-0.00118530,-0.00064299,0.00001921,-0.00094010,-0.00194212,0.0001
 4271,0.00042732,0.00034213,-0.00003023,-0.00016471,0.00028135,-0.00003
 663,-0.00132838,0.00320325,-0.00010598,-0.00319654,-0.00029341,-0.0000
 3867,0.03388229,-0.24288774,0.01366660,-0.00014315,-0.00011075,0.00001
 194,-0.00010091,0.00006251,-0.00000239,0.01541843,0.47905287,-0.001873
 45,0.00186797,-0.00415692,0.00047022,-0.00045817,-0.00092860,0.0000564
 8,0.00018589,0.00145853,0.00000171,-0.00002583,-0.00057415,0.00005992,
 -0.00012062,0.00002471,-0.00011857,0.00005823,0.00040142,-0.00000348,0
 .00001998,0.00001499,0.00005967,0.00005196,-0.00019439,0.00007397,0.00
 016452,0.00015600,-0.00002896,-0.00003757,-0.00013845,0.00001003,-0.00
 003376,-0.00019308,0.00002001,-0.00011267,0.00196623,0.00023937,-0.000
 00157,-0.00031502,-0.00281382,0.01327480,-0.06152700,0.00000948,0.0000
 1373,0.00007504,0.00000701,-0.00000149,0.00004582,-0.00048183,0.006425
 28,0.56439513,0.00259369,0.00003001,0.00001986,-0.00014787,-0.00030046
 ,0.00001560,-0.00004723,0.00016466,-0.00001246,0.00000863,0.00002886,-
 0.00000218,-0.00008283,-0.00004191,0.00000177,0.00004905,-0.00001136,0
 .00000166,0.00000277,-0.00002711,0.00000217,0.00008498,0.00042536,-0.0
 0002364,0.00025768,0.00022262,-0.00001470,-0.00005169,0.00001800,-0.00
 000238,-0.00004186,0.00002616,-0.00000189,-0.00033924,-0.00003419,-0.0
 0000449,-0.00013538,0.00011315,-0.00000963,-0.00560485,0.00596322,-0.0
 0049921,-0.00000239,-0.00001144,0.00000077,-0.00001238,0.00000626,-0.0
 0000050,-0.32476077,0.02028281,-0.00464863,0.34735698,-0.00148690,-0.0
 0534675,0.00042175,-0.00100250,-0.00095031,0.00008647,-0.00029269,-0.0
 0045934,0.00002963,-0.00004528,-0.00002703,0.00000260,0.00008784,-0.00
 014679,0.00001375,-0.00017165,0.00017460,-0.00001636,-0.00001741,0.000
 00789,-0.00000181,-0.00009071,0.00084342,-0.00010247,0.00047323,0.0004
 1578,-0.00001556,-0.00008333,-0.00004343,0.00000520,0.00014889,-0.0000
 6441,0.00000330,0.00187286,-0.00023723,0.00005819,0.00015079,0.0001319
 9,-0.00000894,0.04501862,-0.01691714,0.00175363,0.00001593,0.00000638,
 -0.00000005,0.00000156,-0.00000074,-0.00000054,0.00667851,-0.04497171,
 -0.00027227,-0.02667323,0.06302150,0.00013030,0.00043923,0.00065146,0.
 00006670,0.00009457,0.00039027,0.00002083,0.00003491,-0.00000822,0.000
 00321,0.00000346,0.00001566,-0.00000768,0.00001225,0.00002711,0.000013
 32,-0.00001451,-0.00002166,0.00000146,-0.00000192,-0.00001399,0.000013
 93,-0.00009651,-0.00054254,-0.00003295,-0.00001845,0.00012798,0.000005
 00,0.00000637,0.00004078,-0.00001083,0.00000188,-0.00004297,-0.0001433
 2,0.00003620,0.00026111,-0.00001237,-0.00000937,-0.00001416,-0.0033424
 5,0.00130314,-0.00009510,-0.00000122,-0.00000036,0.00000322,-0.0000001
 6,-0.00000049,-0.00000843,-0.00365824,-0.00011535,-0.04980383,0.005416
 83,-0.00153949,0.04627544,0.00242402,0.00033674,0.00167806,0.00027775,
 -0.00101578,0.00019576,0.00078709,0.00008322,-0.00004088,-0.00001495,-
 0.00004135,0.00002692,-0.00004982,0.00000958,-0.00001029,-0.00041495,-
 0.00055709,-0.00006685,-0.00000732,0.00003053,0.00001329,-0.00113372,0
 .00064757,0.00130109,-0.00059537,0.00036138,-0.00058931,0.00017625,0.0
 0002892,0.00006777,0.00002203,-0.00001130,0.00001896,-0.00045844,0.000
 68512,-0.00036264,0.00032041,-0.00010432,0.00007875,0.00397613,0.00449
 150,0.00716166,-0.00000282,0.00000245,-0.00000654,0.00001358,-0.000003
 61,0.00000416,-0.08747080,-0.04494049,-0.07855737,-0.00927177,-0.01423
 147,-0.02560089,0.08683778,-0.00772128,0.00292536,-0.00097987,0.000513
 23,0.00083224,0.00030238,-0.00059996,0.00013322,0.00023800,-0.00000632
 ,0.00020147,-0.00021153,0.00019015,-0.00033844,0.00004833,0.00015518,0
 .00054145,-0.00005031,0.00000126,0.00002431,-0.00001297,0.00062780,0.0
 0015185,-0.00060807,0.00060738,-0.00015182,0.00025489,-0.00025152,-0.0
 0003831,-0.00004235,0.00003246,-0.00005602,-0.00004260,0.00102695,-0.0
 0126578,0.00057596,0.00035162,0.00011806,-0.00004278,-0.00565163,-0.03
 857041,-0.02549226,0.00001296,0.00001859,-0.00000223,0.00000937,-0.000
 00787,-0.00000112,-0.04161098,-0.09967233,-0.08993904,-0.00003712,0.00
 255647,0.00201786,0.04836152,0.12494727,-0.00148522,0.00061086,0.00062
 498,-0.00049734,-0.00124110,0.00000187,0.00004840,0.00012922,-0.000027
 13,-0.00001325,0.00008092,0.00000075,0.00002591,-0.00024329,0.00002533
 ,-0.00024381,-0.00000637,-0.00005449,-0.00001281,0.00001226,-0.0000067
 0,0.00048031,0.00052938,-0.00013556,0.00027623,0.00054515,-0.00014252,
 -0.00009692,-0.00000940,0.00003490,0.00001843,-0.00000759,0.00000794,0
 .00033559,-0.00010446,-0.00021257,0.00028720,0.00017172,0.00001903,0.0
 0472717,-0.00183913,0.00964070,0.00002208,0.00000062,-0.00002051,0.000
 00030,0.00000193,-0.00000083,-0.07688307,-0.09408450,-0.21532689,0.000
 95359,0.00143966,0.00081223,0.08344112,0.10600004,0.22520531,0.0024151
 6,0.00011100,-0.00166903,0.00026981,-0.00105958,-0.00003703,0.00078598
 ,0.00009273,0.00004620,-0.00001471,-0.00004261,-0.00002097,-0.00004909
 ,0.00000471,0.00000790,-0.00042256,-0.00054116,0.00013833,-0.00000726,
 0.00002860,-0.00001761,-0.00109021,0.00046320,-0.00140389,-0.00060066,
 0.00045435,0.00051802,0.00017514,0.00001871,-0.00006790,0.00002292,-0.
 00001417,-0.00001667,-0.00045606,0.00072558,0.00025366,0.00032906,-0.0
 0011001,-0.00005621,0.00424871,0.00328159,-0.00780040,-0.00000245,0.00
 000348,0.00000652,0.00001368,-0.00000412,-0.00000326,-0.09125548,-0.03
 479449,0.08751825,-0.00985551,-0.01035306,0.02713850,0.00458493,0.0039
 8893,-0.01138393,0.09090859,-0.00743835,0.00291776,0.00046913,0.000588
 68,0.00094857,-0.00042773,-0.00059349,0.00007639,-0.00026691,-0.000008
 85,0.00021589,0.00017984,0.00018477,-0.00030255,0.00000395,0.00018804,
 0.00053648,-0.00003172,0.00000285,0.00002382,0.00000855,0.00053641,0.0
 0015877,0.00057539,0.00056569,-0.00026458,-0.00022298,-0.00023561,-0.0
 0002972,0.00004625,0.00002839,-0.00004746,0.00005135,0.00097820,-0.001
 30841,-0.00039239,0.00030590,0.00009783,0.00003822,-0.00694213,-0.0336
 4784,0.03166321,0.00000967,0.00001802,-0.00000317,0.00000922,-0.000007
 83,0.00000235,-0.03164829,-0.07583498,0.06894062,-0.00014429,0.0020068
 2,-0.00215340,0.00586688,0.00765067,-0.01198592,0.03774631,0.09679236,
 0.00263048,-0.00094159,0.00064147,0.00042477,0.00107910,-0.00010652,0.
 00005661,-0.00014234,0.00003081,0.00001419,-0.00011341,-0.00001391,-0.
 00005456,0.00029142,-0.00001129,0.00021036,-0.00009228,-0.00004191,0.0
 0001249,-0.00001604,-0.00000626,-0.00058700,-0.00056267,-0.00018600,-0
 .00037353,-0.00051735,-0.00002446,0.00013571,0.00001946,0.00002743,-0.
 00002242,0.00001534,-0.00000151,-0.00048784,0.00028117,-0.00017232,-0.
 00032815,-0.00018633,0.00003061,-0.00388321,0.00824500,0.00444550,-0.0
 0002331,-0.00000622,-0.00002032,-0.00000132,-0.00000100,-0.00000097,0.
 08537250,0.07301139,-0.23537955,-0.00119252,-0.00185669,0.00194564,0.0
 1124723,0.00798767,-0.02044584,-0.09315048,-0.08649463,0.24928941\\0.0
 0008480,-0.00004953,0.00000458,0.00004913,-0.00004681,0.00000400,0.000
 06473,0.00002663,-0.00000116,-0.00000509,0.00001513,-0.00000116,-0.000
 03089,-0.00000599,0.00000001,-0.00004211,-0.00005118,0.00000314,-0.000
 01588,0.00000172,-0.00000034,0.00000230,0.00001536,-0.00000109,-0.0000
 6396,0.00008176,-0.00000675,-0.00001077,0.00001610,-0.00000119,-0.0000
 0577,-0.00000124,0.00000002,-0.00003135,-0.00000544,0.00000004,0.00005
 475,-0.00001984,0.00000219,-0.00007033,0.00003509,-0.00000335,0.000001
 73,0.00000541,-0.00000042,0.00000668,-0.00002651,0.00000203,0.00000924
 ,-0.00001333,0.00000108,-0.00000412,0.00000332,-0.00000029,0.00000336,
 0.00001025,0.00000693,0.00000355,0.00000913,-0.00000827\\\@


 ALMOST ALL THE CHEMICAL PROCESSES WHICH OCCUR IN NATURE,
 WHETHER IN ANIMAL OR VEGETABLE ORGANISMS,
 OR IN THE NON-LIVING SURFACE OF THE EARTH ... 
 TAKE PLACE BETWEEN SUBSTANCES IN SOLUTION

                                    -- W. OSTWALD, 1890
 Job cpu time:       0 days  1 hours 14 minutes 50.2 seconds.
 File lengths (MBytes):  RWF=    344 Int=      0 D2E=      0 Chk=     12 Scr=      1
 Normal termination of Gaussian 09 at Wed Jul 16 07:18:58 2025.
